74
    Energy:       -2062.2789515101354
    C    -8.686898648648652    -0.11759729729729816    -0.1866959459459458
    N    -8.975498648648653    -0.6415972972972962    1.006704054054054
    C    -9.630098648648653    0.5532027027027039    -0.9551959459459459
    H    -9.348998648648653    0.9806027027027039    -1.909595945945946
    C    -7.251898648648648    -0.27479729729729885    -0.6357959459459459
    H    -7.028598648648648    -1.3352972972972972    -0.7599959459459459
    H    -7.1031986486486485    0.2016027027027017    -1.604495945945946
    C    -10.219398648648653    -0.5243972972972961    1.457904054054054
    H    -10.418498648648653    -0.9618972972972961    2.429804054054054
    C    -10.926498648648652    0.6656027027027038    -0.4765959459459458
    H    -11.681898648648653    1.1792027027027028    -1.0571959459459461
    N    -6.288098648648648    0.2781027027027012    0.3222040540540542
    H    -6.490998648648648    1.2628027027027027    0.4693040540540542
    H    -6.440898648648648    -0.1747972972972983    1.219204054054054
    C    -11.232798648648652    0.11100270270270184    0.753804054054054
    H    -12.232098648648652    0.16440270270270171    1.162604054054054
    C    -0.18399864864864868    -0.6063972972972962    -0.6082959459459459
    H    -0.49999864864865085    -0.9633972972972962    -1.586695945945946
    C    1.0154013513513493    0.3547027027027012    -0.7541959459459459
    H    1.5424013513513493    0.2162027027027017    -1.693095945945946
    C    -1.2630986486486508    0.2650027027027012    0.00820405405405357
    H    -1.1431986486486507    0.30710270270270124    1.099604054054054
    O    0.08860135135135137    -1.7167972972972974    0.23700405405405423
    C    0.37420135135134913    1.7435027027027028    -0.5865959459459459
    H    0.69630135135135    2.136502702702703    0.3800040540540542
    O    1.9226013513513494    0.12330270270270184    0.3279040540540542
    O    -1.0394986486486508    1.5357027027027028    -0.5769959459459459
    C    -2.6884986486486473    -0.1680972972972983    -0.30839594594594577
    C    0.93930135135135    -2.618097297297297    -0.2949959459459458
    C    0.6364013513513499    2.7640027027027028    -1.686595945945946
    H    0.42180135135134916    3.764502702702703    -1.312095945945946
    H    -0.011198648648648812    2.546602702702703    -2.532795945945946
    C    3.242101351351353    0.1924027027027017    0.054304054054053384
    O    -2.9550986486486472    -1.1256972972972972    -0.9899959459459459
    C    1.3206013513513493    -3.699497297297297    0.6542040540540541
    O    1.3539013513513491    -2.5324972972972972    -1.4221959459459461
    O    1.9614013513513493    2.7318027027027028    -2.220995945945946
    C    4.077201351351352    0.03880270270270169    1.276304054054054
    O    3.6882013513513527    0.3781027027027012    -1.0470959459459461
    C    2.0636013513513527    -4.760397297297297    0.14530405405405422
    H    2.302501351351353    -4.768797297297297    -0.909595945945946
    C    1.0014013513513493    -3.653897297297297    2.007204054054054
    H    0.42300135135134914    -2.8245972972972972    2.3914040540540538
    C    2.944801351351353    3.143402702702703    -1.402195945945946
    C    5.430401351351352    0.3385027027027012    1.158104054054054
    H    5.809001351351352    0.6526027027027038    0.19400405405405424
    C    3.550701351351353    -0.36429729729729876    2.499304054054054
    H    2.496401351351353    -0.5921972972972962    2.582204054054054
    C    2.488801351351353    -5.773897297297297    0.9870040540540541
    H    3.068801351351353    -6.598797297297297    0.5933040540540541
    C    1.4379013513513492    -4.665897297297297    2.848904054054054
    H    1.2033013513513493    -4.624697297297297    3.904604054054054
    C    4.263901351351352    3.208502702702703    -2.083595945945946
    O    2.754801351351353    3.434902702702703    -0.24679594594594578
    C    6.258201351351352    0.2419027027027017    2.264004054054054
    H    7.309401351351352    0.4858027027027012    2.177104054054054
    C    4.385701351351352    -0.47119729729729876    3.601304054054054
    H    3.982501351351353    -0.7885972972972961    4.554504054054054
    C    2.1800013513513528    -5.7236972972972975    2.340304054054054
    H    2.5215013513513527    -6.508297297297297    3.003404054054054
    C    4.394101351351352    2.958302702702703    -3.444195945945946
    H    3.5211013513513527    2.697602702702703    -4.024795945945946
    C    5.380201351351352    3.5304027027027027    -1.3193959459459461
    H    5.251801351351352    3.713402702702703    -0.2603959459459458
    C    5.735401351351352    -0.1652972972972983    3.484804054054054
    H    6.382001351351352    -0.2446972972972983    4.349804054054054
    C    5.641801351351352    3.037002702702703    -4.041795945945946
    H    5.743801351351352    2.845102702702703    -5.102095945945946
    C    6.627401351351352    3.6030027027027027    -1.918695945945946
    H    7.499301351351352    3.851902702702703    -1.326695945945946
    C    6.757101351351352    3.357602702702703    -3.280195945945946
    H    7.731101351351352    3.417602702702703    -3.749295945945946
    O    -3.568298648648647    0.6346027027027038    0.26720405405405423
    H    -4.512898648648648    0.34320270270270126    0.10350405405405413
74
    Energy:       -2062.282286522351
    C    -8.527096825471293    -0.1427017150400343    -0.12980343784417284
    N    -8.708647551558341    -0.7532834150527903    1.0424377288555644
    C    -9.58459658760078    0.3391003301264672    -0.8890142172477599
    H    -9.395209321799976    0.8298364961781693    -1.8347584728149757
    C    -7.08905988865857    0.004912825656992116    -0.5755631387988606
    H    -6.742297687497204    -0.9331534424118009    -1.0125461819499992
    H    -7.009562410730817    0.7608068830505016    -1.3575570106783095
    C    -9.95045530950906    -0.9004936865367265    1.490186917234639
    H    -10.056903710846983    -1.40622218843592    2.4435048182529098
    C    -10.876944809427824    0.18887361117376222    -0.4094586789166995
    H    -11.719483834942395    0.5644799692765223    -0.9756079431223172
    N    -6.193408063540679    0.3505959385098103    0.5324101366400772
    H    -6.49853913477327    1.2285346721960604    0.9430049733626115
    H    -6.325779086911739    -0.3460334595025595    1.2609486738824915
    C    -11.068567770854791    -0.44429768215651805    0.8063653008525634
    H    -12.057154489040917    -0.583646101377472    1.2215608645712532
    C    -0.23398094754486698    -0.4499283435100571    -0.6731030808926383
    H    -0.596997726234276    -0.7806024500591956    -1.6449419448230345
    C    1.0031820258115207    0.45667855456391404    -0.8420600757598777
    H    1.520125632501511    0.2886370522217698    -1.7818620562079897
    C    -1.2466757452782742    0.4706645969066738    -0.023217871030150147
    H    -1.0679346281895716    0.5247760841202708    1.0589404066572459
    O    -0.006446557617475892    -1.5705529722078244    0.1699950324127344
    C    0.421393546429209    1.873331362904224    -0.6936388149993954
    H    0.782085762540237    2.2829490474713166    0.2518871987531346
    O    1.8983929704052165    0.2005437514342118    0.2434813581295538
    O    -0.999278142723403    1.7209338508751282    -0.6419393835409437
    C    -2.700521139240353    0.09639669778866164    -0.2666719167551522
    C    0.8516938170046973    -2.482065041275737    -0.3278679023042319
    C    0.6990696785676704    2.838471667901097    -1.8378455070860762
    H    0.46237562112840525    3.8554988162831427    -1.5249973179322278
    H    0.07579979078447269    2.5651969671367802    -2.686925194003889
    C    3.221500852743501    0.23131672692697614    -0.015435276275501057
    O    -3.0465094029796806    -0.7458859120938185    -1.057300727430817
    C    1.1629007207726505    -3.5673258671391483    0.6405111187576534
    O    1.320854357311165    -2.400825269488451    -1.4335854470060259
    O    2.0407540652161913    2.786027831850252    -2.3323803307734003
    C    4.031018485460782    0.02142336027984509    1.215580197394877
    O    3.685182959314718    0.42341901071127336    -1.108228475156668
    C    1.9439583535426765    -4.627125677565532    0.19252303550333505
    H    2.2763478964735504    -4.628654324434694    -0.8367699711699795
    C    0.7289292939831846    -3.5255958730032826    1.9612129111550756
    H    0.12913402048530265    -2.6936822888624183    2.3028321716962936
    C    3.006222619107792    3.2074467680515677    -1.4970457335598075
    C    5.404760560664809    0.21725176602585355    1.1233009352105776
    H    5.8260775617212115    0.5019628671871982    0.16805616130687928
    C    3.454024160221489    -0.34238179234807015    2.42793344870743
    H    2.3852724061782595    -0.4927678210211923    2.490176763122184
    C    2.283826804510561    -5.649595899753559    1.0620634184405764
    H    2.889280689449628    -6.476062934197534    0.7139351179973008
    C    1.077023150286177    -4.5480393280250615    2.8302582969244168
    H    0.7457846975156114    -4.516694955575781    3.859852724837846
    C    4.354036378543899    3.195990310273397    -2.124534940144223
    O    2.7833805098740365    3.5597313077174424    -0.36450476473284055
    C    6.200751000009551    0.0549407389392436    2.2450724665694115
    H    7.269226560384329    0.21236373090964164    2.177550285289158
    C    4.255391367599947    -0.5096573301665608    3.5462147397273314
    H    3.8100640025338315    -0.7932870825021839    4.490816208335448
    C    1.851413440466706    -5.608955479332626    2.3810809190984425
    H    2.1215255715460604    -6.40601302252852    3.0620627097089432
    C    4.541715068202832    2.8600316106468027    -3.4601503221738303
    H    3.6902263992843936    2.5963563013472957    -4.0707222800418945
    C    5.44322126158643    3.5227802501995633    -1.324766827537296
    H    5.270634334446225    3.7761285898739296    -0.28722277863331785
    C    5.625921722064623    -0.3088365253901747    3.4557788760066397
    H    6.248502746576563    -0.43557912482572414    4.332345804440208
    C    5.8202152357462715    2.857561333732908    -3.994711470271255
    H    5.968418998472589    2.598358466017933    -5.034764549536031
    C    6.720095860114139    3.5136120396170925    -1.8609041879532253
    H    7.569729196079685    3.765452958430448    -1.2398130152591271
    C    6.908137871510459    3.1824243098852127    -3.1965211509840215
    H    7.905884732287155    3.177247295528296    -3.61632994635241
    O    -3.510242495522173    0.811037851642618    0.49468336823463843
    H    -4.473171488967995    0.555862404250747    0.3465072536306738
74
    Energy:       -2062.2830343236683
    C    -8.307777433148477    -0.33519863103905756    -0.04531927408774651
    N    -8.210328183223963    -1.2257113774522623    0.9436473717676859
    C    -9.529768402222862    0.06443707378164203    -0.5688676573151372
    H    -9.565958146971207    0.7916915586495911    -1.3695363476903128
    C    -6.996544532890117    0.22816913243765008    -0.5450597243253985
    H    -6.4877354774317295    -0.5149306679587411    -1.161439864059771
    H    -7.172224692164147    1.0989632823372626    -1.177264152327573
    C    -9.329390450216493    -1.7442866877319023    1.4363673723968173
    H    -9.208672967873369    -2.4687641852189124    2.234199091663972
    C    -10.693175937956461    -0.4754273825697499    -0.04180865424407691
    H    -11.66009723600532    -0.17414574548735248    -0.4236486384272554
    N    -6.096225975554241    0.595432898470309    0.553241975746719
    H    -6.539579924025919    1.3045141307041175    1.1296465048745887
    H    -6.000624414801086    -0.22089316183577185    1.152314629419565
    C    -10.595263839199735    -1.400647376417561    0.9830307756227313
    H    -11.474060412976872    -1.8480098366754831    1.4265177620096785
    C    -0.3137376041265584    -0.15398998346876994    -0.7683292318407473
    H    -0.6902488948076302    -0.47415773049070614    -1.738524693749773
    C    0.9888215299847598    0.6552355107367435    -0.9352403066183238
    H    1.512207638526233    0.42577512167326403    -1.858184480474728
    C    -1.2581929255823596    0.854643530187526    -0.14831682139279412
    H    -1.067688914138361    0.9335986490322176    0.9308324413917245
    O    -0.18334146106332627    -1.2729688732358084    0.09674929820855317
    C    0.5064063836739351    2.11318403901534    -0.8343451982365074
    H    0.8749570313976099    2.520014772532611    0.10933669381405148
    O    1.8383597772878435    0.36365196640778086    0.1773324451482671
    O    -0.9230258189358882    2.061633358854339    -0.8091514701690041
    C    -2.735105998552616    0.5583077888350108    -0.36002190679097096
    C    0.6172107332484024    -2.251467755975589    -0.3675062639605056
    C    0.8810157180708733    3.0251045092955096    -1.9939959491774635
    H    0.7082758096582547    4.064557336518335    -1.7148680365621891
    H    0.26451066896700315    2.7726369020537223    -2.854395864771947
    C    3.1638112647464873    0.26868498714714467    -0.05028490055821867
    O    -3.1365867530922062    -0.3296098654270994    -1.0719458816414358
    C    0.8262536813183152    -3.340044250982547    0.6241273221227087
    O    1.1167243240487366    -2.222068393771864    -1.462609528614998
    O    2.2302483284106143    2.864447400935495    -2.4448473826096975
    C    3.9199578525439245    0.007515933530096476    1.2046809762884731
    O    3.668421036977124    0.3963388958781443    -1.1342874689838012
    C    1.5608239484178528    -4.449352614896358    0.21974282473282933
    H    1.9333893912736955    -4.483758497752602    -0.7951223076051586
    C    0.3426906279462239    -3.255494580405542    1.9253994495442246
    H    -0.22069774323016353    -2.3857500731126464    2.232942316972686
    C    3.198219581358808    3.2324333491460013    -1.5872190087871303
    C    5.307856742128668    0.07174825052754089    1.1467849189000872
    H    5.778393209991082    0.29940680989577656    0.19923181690640165
    C    3.2802622764981892    -0.280626413954116    2.4058984048828824
    H    2.20086389619608    -0.32951156250909747    2.4411464831934255
    C    1.8053655080292    -5.477930633202135    1.113794842717705
    H    2.3754449346797837    -6.342425378024532    0.8000445057849948
    C    0.5939630602852402    -4.285262249429782    2.8187218309180664
    H    0.22286368600305884    -4.22140836950987    3.833092273299708
    C    4.561779870893945    3.0963323041884143    -2.1641756032870267
    O    2.966787870603174    3.63167674546708    -0.47210562469926154
    C    6.055745038091704    -0.146476890188572    2.2920030373453426
    H    7.135702222504018    -0.09186856723681522    2.2514096343035153
    C    4.032982092641764    -0.5042641082961827    3.547700041354389
    H    3.538398697058211    -0.7295346195261763    4.48348036934409
    C    1.3227029157263377    -5.394997682699056    2.4132916628975267
    H    1.5177144136480227    -6.197381851073759    3.113362339512483
    C    4.76959007810733    2.7107186028622885    -3.4832495368382412
    H    3.922065262981933    2.502513210118087    -4.120251378522023
    C    5.644498818736147    3.3519532584395915    -1.330374636706288
    H    5.455811412716509    3.6456830125440556    -0.30639929106957103
    C    5.418175703448697    -0.4347486629770854    3.4916173295134065
    H    6.003172899955742    -0.6054025665121419    4.386415734712349
    C    6.062306195471951    2.5868630781804933    -3.967046455537735
    H    6.2265827613276485    2.2882276814619877    -4.994025525929511
    C    6.934965685625573    3.221351243601741    -1.815538671524572
    H    7.779171408299611    3.417045143731391    -1.1673928817195722
    C    7.1436108844372255    2.84006592476698    -3.1346015198461394
    H    8.152230892344372    2.7395669837667573    -3.5145631186961674
    O    -3.499259902009846    1.3717339125203645    0.34633579463449743
    H    -4.465999724087636    1.0926589368134711    0.26742498745274973
74
    Energy:       -2062.282936743109
    C    -7.778248353181635    -0.5674823827605406    -0.048969076255506915
    N    -7.275245760988131    -1.6699998155170104    0.5105970636615486
    C    -9.14343721789075    -0.3649625691337834    -0.2003755509137361
    H    -9.508319167811479    0.5480438070020756    -0.6524013696685509
    C    -6.760776831154388    0.46805138623944886    -0.45996624757068383
    H    -6.077230324926716    0.04461921401845408    -1.196495119819041
    H    -7.251876439771989    1.3274683456511454    -0.9161566147931588
    C    -8.12190611338334    -2.605037533256405    0.9248109397779332
    H    -7.67630665195049    -3.49051167612557    1.3641345638412405
    C    -10.019498208439499    -1.3426660953959961    0.24502665162610351
    H    -11.088896420728473    -1.2072037185616915    0.14899745313037965
    N    -5.950775052096663    0.9195837667766801    0.6787916569175466
    H    -6.543164225799863    1.3651611826724654    1.3718500217237664
    H    -5.569422093285224    0.0883190050145309    1.1244504970105782
    C    -9.500895434066033    -2.490210989074214    0.8189822478138862
    H    -10.143453428824976    -3.2805429909773247    1.1809967856002526
    C    -0.48537172444703847    0.23287782243457972    -0.7703959070400601
    H    -0.8999758308561208    -0.05856263353489099    -1.7340004146720984
    C    0.8899703476139732    0.9035572809405626    -0.95318521080897
    H    1.3869481350710926    0.6061938117514524    -1.8712523335483076
    C    -1.3164075706496232    1.340579094385063    -0.15814770702915276
    H    -1.101488023296815    1.4212801239003385    0.9163806450601096
    O    -0.4655663214880212    -0.881950418222357    0.10908160579198202
    C    0.554077057340283    2.404182023852238    -0.8772366324944718
    H    0.9643069471471454    2.7881851382624356    0.058770016065800686
    O    1.7060308051154276    0.548935892199719    0.16554446438683704
    O    -0.8740049491763714    2.4947943221888544    -0.8474432070617431
    C    -2.8162231434115177    1.1706424641479392    -0.33611487373396315
    C    0.22052520803296327    -1.9466693565143345    -0.3482385173539486
    C    1.0166508517113086    3.2521703665056596    -2.052970211940852
    H    0.9598183432284736    4.30862851998356    -1.7908178244840416
    H    0.37151497029107544    3.05409012433456    -2.9065393884225514
    C    3.010422186310017    0.2937362011788177    -0.05986173990245534
    O    -3.303767893724698    0.31260492306099735    -1.0331700739007028
    C    0.3282146680066767    -3.0335792102810557    0.660828397804637
    O    0.7050548661470721    -1.9873548516409874    -1.4496228579313173
    O    2.338154447759538    2.937253346843117    -2.505261524162141
    C    3.732814342331685    -0.021074027318620313    1.2025357296780559
    O    3.5232964365867523    0.3330699443608711    -1.146714157292169
    C    0.941267030980398    -4.218892106119528    0.2702930602672061
    H    1.294716030265102    -4.309602451512144    -0.7479290679789301
    C    -0.1279311195864572    -2.876320651578909    1.9652905619853138
    H    -0.5972411375530542    -1.948690138349997    2.2615117179723603
    C    3.344117525397111    3.208121966164433    -1.654996319891443
    C    5.119214520347955    -0.11135066298152675    1.1474616658273111
    H    5.612170726691892    0.0410294151991958    0.1962057330500087
    C    3.064308141502555    -0.2097478341030131    2.407817483524716
    H    1.9860009996308554    -0.13946935753699036    2.4405120452190894
    C    1.093300970488291    -5.249570845826285    1.1822046107794852
    H    1.5697418792534588    -6.172690004402612    0.8796278250312978
    C    0.03045354531132222    -3.9089208998699703    2.8763329030603044
    H    -0.31877371129347964    -3.788680032076989    3.8933477659039895
    C    4.681540355708216    2.9081817346781897    -2.230610663640397
    O    3.1622649035813835    3.648600350308832    -0.5462436339812525
    C    5.837719850188119    -0.3833777508256576    2.2999247783816306
    H    6.917157153517964    -0.4482132822386809    2.2617039613809227
    C    3.7869030834930077    -0.48845465317676073    3.5568548824608883
    H    3.269789140680093    -0.6367888226123247    4.49581823481012
    C    0.6391045930056491    -5.093619014787797    2.4852545115062163
    H    0.7626011521192301    -5.897780707264436    3.1993711090433963
    C    4.839368933631558    2.470976958676857    -3.540406853252963
    H    3.9712399075972247    2.3440937215930635    -4.170994593474856
    C    5.7891242550441415    3.0591459303300446    -1.4040911932385944
    H    5.638414869726629    3.395052708207092    -0.386809613504333
    C    5.171414698038969    -0.5721057104218339    3.503726540421735
    H    5.733476797716344    -0.7847911768219165    4.404178293138925
    C    6.107998466163777    2.1911704525446507    -4.022717180965271
    H    6.233505869671268    1.8517902964184483    -5.042465031504625
    C    7.054826110639788    2.7733153166641875    -1.8877630551219151
    H    7.918164653220983    2.8877997562092963    -1.2454364263790045
    C    7.214112298874502    2.3406333017477765    -3.197822857733068
    H    8.203540401568404    2.1186967690793534    -3.576629145203326
    O    -3.5046827551850175    2.0331220466732955    0.38914946412805385
    H    -4.474472571781178    1.7511155386219668    0.37188630888608337
74
    Energy:       -2062.2797533411294
    C    -7.132497746251085    -0.7689163332601564    -0.055908515322001306
    N    -6.294568167411562    -1.8078388057802826    -0.06481950124469608
    C    -8.491707107336    -0.908353170809123    0.1922306666470379
    H    -9.12995031206589    -0.03434047924699113    0.19975353436125184
    C    -6.502975211742461    0.5820097424201138    -0.2730565809688651
    H    -5.840272803059671    0.5448716712626551    -1.1370177761365257
    H    -7.2681541366196    1.3342580816208713    -0.46403719157372086
    C    -6.797135751558579    -3.017358166206914    0.15555627774444275
    H    -6.090859786893352    -3.8399917711755718    0.12602416343209305
    C    -9.004362655952013    -2.17339905301614    0.43132046784108413
    H    -10.058698606126226    -2.309406980808957    0.6338740470130586
    N    -5.691293863692485    1.007265303645879    0.87482799206377
    H    -6.266753182506664    1.073744294876483    1.7074760474837272
    H    -5.008910918078904    0.27379924872261047    1.0540987400053734
    C    -8.140956755936106    -3.254891036489902    0.40924954749070624
    H    -8.492813946121839    -4.26167997304593    0.5861163983296924
    C    -0.7043545208453582    0.6069474878623199    -0.7279580126533014
    H    -1.1606261699445186    0.3645554306491833    -1.685789990825232
    C    0.7343213960889047    1.1152384071845718    -0.9265504076175077
    H    1.1830533086132553    0.7624823606933753    -1.850000132759324
    C    -1.3991849640316762    1.801908766361893    -0.10914921164215416
    H    -1.1873279512933217    1.8517038046782404    0.9670788150501427
    O    -0.8037557808223565    -0.500768746147339    0.15597049545965952
    C    0.5733194876437003    2.6449625149567226    -0.8477402857284163
    H    1.0450489309975106    2.9792866833239775    0.07813383232583798
    O    1.51509476941104    0.6697307325912218    0.18384906231145406
    O    -0.8330352062724102    2.9020447391652553    -0.7912116348838826
    C    -2.90304942826159    1.786416150564029    -0.31024602695444636
    C    -0.2525252999347071    -1.6400846726524172    -0.30817170143842126
    C    1.1019298696052238    3.4319576793216178    -2.0364298785324277
    H    1.1674843632087386    4.489014584488326    -1.7789304613275787
    H    0.4201850609423273    3.3029993008883913    -2.874691350516476
    C    2.7849883042341284    0.2847766051170148    -0.05451121850411384
    O    -3.4447246034686936    1.0612459090007627    -1.1095294874034127
    C    -0.20616815288157683    -2.715440658144973    0.7181033864206522
    O    0.176284576341928    -1.7470816511376623    -1.4277651919075491
    O    2.369243912461728    2.968696174212159    -2.5117709658380125
    C    3.4927654525585856    -0.07333776830313489    1.2040459167321933
    O    3.2819651855036303    0.25661748187072847    -1.1490225319443195
    C    0.2828903720143062    -3.957281534828306    0.3275464734787301
    H    0.5779717905656975    -4.097958201962453    -0.7034440609547986
    C    -0.5853367410600576    -2.4953064298327434    2.038197234632323
    H    -0.960495255447179    -1.5257137162470695    2.33450437743142
    C    3.4168871148154456    3.1345887437253084    -1.6850786180949138
    C    4.864952595091117    -0.2845839207173456    1.13274380989145
    H    5.3540687747112825    -0.19676083966740004    0.17144597768060738
    C    2.828144939861155    -0.17645056571567566    2.4217744054266306
    H    1.7603259140494125    -0.01325273286332303    2.4664537691902075
    C    0.39299927741341695    -4.978809584371404    1.2555172065887854
    H    0.7763067991686724    -5.944351171224847    0.9529308766864685
    C    -0.4696916111515266    -3.5196278390818754    2.965078475584829
    H    -0.7567001604424939    -3.3501789899893724    3.9945102942140647
    C    4.698827579609907    2.68657388027565    -2.288170202619894
    O    3.308948342170355    3.6010843513505995    -0.5773535013462062
    C    5.57503229401717    -0.5890448148972977    2.282105023954725
    H    6.644417260260282    -0.7457657070117228    2.2312491066092828
    C    3.541688193293468    -0.4885250401904412    3.567924691799753
    H    3.0283382438756155    -0.5691857147308219    4.517173453264966
    C    0.019028123996931826    -4.758892239160048    2.5746734718564577
    H    0.11202040401787668    -5.55565125223606    3.301642796755824
    C    4.76971535853931    2.20288715504603    -3.5891110712582086
    H    3.872618186108341    2.145032972471318    -4.188390600399991
    C    5.841783790778364    2.748634283870872    -1.499592060756483
    H    5.757108887120576    3.122822099136021    -0.4880164764916931
    C    4.913294642747734    -0.6904809459003666    3.498888445716292
    H    5.4691332333744755    -0.927017795616546    4.397198957544532
    C    5.988510195542046    1.789068036464832    -4.101998596037646
    H    6.04635364296822    1.4134332737797828    -5.115068809366788
    C    7.057543995424215    2.3307205795034145    -2.0142786290675105
    H    7.948966586655907    2.378027884101409    -1.4026856837242825
    C    7.1307635319472675    1.8524718525590644    -3.316177573229806
    H    8.081287730507869    1.5275723442884037    -3.71932834240132
    O    -3.536998300596316    2.599437231855917    0.5203010742140991
    H    -4.489727320451401    2.2888404585634765    0.5534329682383723
74
    Energy:       -2062.2689083692203
    C    -6.623073982262803    -0.9115640698529437    -0.02422379595892388
    N    -5.790243814651313    -1.9284167246542878    -0.25657907595462254
    C    -7.947101162295086    -1.0986956109391697    0.352306486543239
    H    -8.578890209410135    -0.23938728265998233    0.53705910033601
    C    -6.039414236390857    0.47000094782586843    -0.12971251598308606
    H    -5.430508936146642    0.5426475876005049    -1.0298894810096166
    H    -6.845295534093691    1.2020295068320066    -0.20584737062649197
    C    -6.266134195325451    -3.1618032554997173    -0.13011777811609343
    H    -5.567455486471505    -3.965603350821404    -0.3355326097999051
    C    -8.431070811009786    -2.3887602773573353    0.486514138053957
    H    -9.457385165236483    -2.561066274175027    0.7829765766575485
    N    -5.188778725520849    0.825012589500443    1.0105625956932427
    H    -5.659903900701402    0.6184067623690549    1.881830703803958
    H    -4.361779462500985    0.23841089212273855    1.0012904302633463
    C    -7.574154020167833    -3.4464964759651937    0.2370290542920938
    H    -7.9041314583333415    -4.471923555824894    0.3249630882413004
    C    -0.923629922468522    0.7354239544105929    -0.7171285031321375
    H    -1.3817634236263585    0.5230153359063046    -1.6815984409859965
    C    0.555501707555906    1.1342562396725184    -0.9014031599015101
    H    0.9702028514692718    0.7713603141100936    -1.8370613591786331
    C    -1.5396311286449174    1.9778284616050559    -0.09856900530709103
    H    -1.4270559656631847    1.9594034793250847    0.9927168257509048
    O    -1.096805752472699    -0.3693060977766653    0.16355652569894108
    C    0.5379733139882777    2.666263390701557    -0.7778631996088199
    H    1.0686631100663757    2.934388103270629    0.13690295655123264
    O    1.3014967014555214    0.5923631131802797    0.19107235536755934
    O    -0.8313182816151848    3.054046161126997    -0.6759366792195669
    C    -2.9919008531907574    2.2096226813119944    -0.4648557253621047
    C    -0.5744601929013867    -1.5278727676514408    -0.2966849663401623
    C    1.080415306141851    3.442272875003661    -1.965573516143248
    H    1.183393927883689    4.493336588012591    -1.6953628130782
    H    0.38240546985174895    3.346379864475418    -2.7952106254574103
    C    2.576958664289283    0.22677087441720822    -0.05426474822023102
    O    -3.5429268861499876    1.6811194554673876    -1.3938762669197708
    C    -0.4939098911254816    -2.591328814990979    0.7419658270040168
    O    -0.18332879780198896    -1.6579019530178314    -1.4273781538531012
    O    2.3219958753894985    2.940270378534357    -2.458529893742216
    C    3.3006833370139432    -0.12721057651490333    1.1960090719120322
    O    3.0687353975514053    0.2192272580959529    -1.151570439461472
    C    -0.015490975448182981    -3.8368069583386366    0.3467676935708125
    H    0.23866025916155081    -3.989777847071215    -0.6932368003137259
    C    -0.8147431225964753    -2.3576973217548645    2.0749980260910954
    H    -1.1783466992544656    -1.385420672465609    2.3765218527340344
    C    3.384305520977358    3.0724325566190225    -1.645158036387569
    C    4.670502823934754    -0.3462897217031716    1.1024679061313423
    H    5.141980166035256    -0.2763265705876523    0.131042116326688
    C    2.6595358586200883    -0.20363780616528515    2.4280972804126457
    H    1.59402074333555    -0.03194496779156735    2.4903978589351468
    C    0.1404039630234045    -4.846822433765125    1.2808140940530344
    H    0.5165258217712165    -5.813820775376039    0.9733180133303324
    C    -0.6537185857655453    -3.3708079036828944    3.008081260038775
    H    -0.8950788355023901    -3.1905700882018326    4.04737724507806
    C    4.639108336034079    2.584064458861495    -2.2691525991053236
    O    3.3088125256850685    3.545713912625709    -0.5376383506420671
    C    5.401602172705307    -0.6328010811567129    2.243003441001291
    H    6.4691417531652435    -0.7951197755580222    2.173827621220836
    C    3.3945829882408267    -0.4958568307369847    3.5661708463662887
    H    2.9005568917020628    -0.5531216381807528    4.5273034218540396
    C    -0.1766892379769722    -4.613042482430438    2.61226611060784
    H    -0.047421042282266894    -5.400476853993146    3.344038163518764
    C    4.667362358248895    2.0942697346360784    -3.56929719275269
    H    3.7547946796504768    2.0550641582149525    -4.146258175096578
    C    5.800028448568864    2.6233578372589728    -1.5067080837794615
    H    5.7453452038435255    3.0040734531017295    -0.4954371407708914
    C    4.763658478059047    -0.7063364336509499    3.474344974269245
    H    5.336429301396344    -0.9265735041282671    4.366136385529977
    C    5.864056514000734    1.6526506967032404    -4.109186825274324
    H    5.889371952890836    1.2733306133211915    -5.122153411053772
    C    6.993774098569321    2.1780909543587073    -2.048609205348418
    H    7.900121934135255    2.209080775411962    -1.4585656533548261
    C    7.025484644497656    1.6949089095184253    -3.3504741996828113
    H    7.959069775937199    1.349635049354923    -3.775227507230134
    O    -3.5559305218550183    3.0963747274598883    0.3540805731001265
    H    -4.518191659986902    2.983684102116098    0.2740626838133755
74
    Energy:       -2062.26866503791
    C    -6.226750795225249    -0.8895615797920033    0.014446245755974904
    N    -5.491838110164733    -1.9799654029084925    -0.21352820213371282
    C    -7.569361831823497    -0.955519078297436    0.3684999043227662
    H    -8.127499040435302    -0.04512807731281326    0.5454015543487395
    C    -5.4931549730326505    0.4121011708616323    -0.14166885366439283
    H    -5.150182392447289    0.49943432136330845    -1.1752745751822995
    H    -6.154925328163459    1.2537355271484316    0.05184034996207353
    C    -6.076625857082516    -3.166361008780472    -0.10128743554903336
    H    -5.447747636745247    -4.026090990141253    -0.3038460210653571
    C    -8.1678910392155    -2.1998714430053514    0.4904445370829467
    H    -9.20995827872836    -2.283283692678025    0.7710911199142285
    N    -4.322213259604283    0.5076881692036506    0.7345041313840892
    H    -3.8775376156715313    -0.3936348728675284    0.8471446853903449
    H    -4.579778347073891    0.8551818085727956    1.6458061486019102
    C    -7.40877035693899    -3.331978768566434    0.24904572957780668
    H    -7.830914705487212    -4.323852123875538    0.3295118254289929
    C    -1.1150916020013504    0.6824023871385132    -0.6887504416940984
    H    -1.5450093963025568    0.4659797687174401    -1.665254706095818
    C    0.3751999852458986    1.070997373821918    -0.8468411055120616
    H    0.7845672227074499    0.7380925422889488    -1.796141650346478
    C    -1.7604526426877605    1.9227271796136738    -0.07841833448134547
    H    -1.793703080937247    1.8520402643269414    1.014803137233883
    O    -1.277185830864792    -0.43345134684420844    0.18413429094059047
    C    0.3956394219811768    2.5914609938030524    -0.6676353316655185
    H    0.9658716837442533    2.8236708969123283    0.23278342011976608
    O    1.1264558987225972    0.4789935593246362    0.21899893525608075
    O    -0.955403292234681    3.0117719670744294    -0.5049892300814086
    C    -3.1147178279514787    2.3214429683877222    -0.6305360767555659
    C    -0.7099372466946914    -1.5739395229610926    -0.2749932557939657
    C    0.926941515725415    3.388363810925071    -1.851573323802573
    H    1.0365365367006967    4.434186840499435    -1.5648912212094142
    H    0.22181485253545108    3.3088667812999395    -2.6770847819735923
    C    2.4159351094344084    0.16649525968756448    -0.04382957459390702
    O    -3.5549354968449465    1.9995779404605951    -1.701440052323508
    C    -0.5774112979192654    -2.6297438094893266    0.76651114737373
    O    -0.32086362610070196    -1.6931231481487237    -1.4071514192657066
    O    2.1649689089332633    2.8946866961929767    -2.368138673659969
    C    3.177004609216417    -0.15747414664614265    1.193461100252243
    O    2.8920632620079822    0.1827965456484457    -1.1476269483093922
    C    -0.07465683772747585    -3.8648987968334265    0.3678222867971199
    H    0.16417438017245356    -4.017419610775814    -0.6759227582730906
    C    -0.8714139827310703    -2.3959622120008324    2.1053213503533064
    H    -1.2456262436330492    -1.4289599768955603    2.4104005584281625
    C    3.2422943670271707    3.033985717787889    -1.575350566999239
    C    4.548261627418347    -0.35796419031851384    1.070738953534837
    H    4.99774961273847    -0.296928805191195    0.0882692271470389
    C    2.5692274881389867    -0.21858159804287278    2.442917672958295
    H    1.5039865469393345    -0.05656856625313728    2.5283789267594905
    C    0.12315507781763525    -4.866723375999648    1.3030243149157166
    H    0.5146045792497935    -5.82676568844549    0.9925774544034991
    C    -0.6673141832062495    -3.400110447080704    3.0397248732670072
    H    -0.8895340337216021    -3.219747870814026    4.083253522407721
    C    4.495218871716436    2.5626423368030427    -2.2206205160316315
    O    3.1821548752515074    3.5025305960823516    -0.464774513638502
    C    5.311065281299022    -0.615807779137485    2.197664596099346
    H    6.378860646997424    -0.7658735210587594    2.1053930449006977
    C    3.3361921927107345    -0.4800225604597988    3.5675580702567964
    H    2.867137572109678    -0.5247724125564993    4.5417243847055495
    C    -0.17247596192405454    -4.633935110651714    2.639561935402999
    H    -0.011983974110465088    -5.415075229994107    3.3719495294546062
    C    4.518869040057776    2.0856498024573717    -3.5259312186220533
    H    3.6025196716081673    2.042017780843036    -4.09661922881838
    C    5.66430518604488    2.6082691778489258    -1.4697877811064985
    H    5.6165168694993595    2.9799178742287387    -0.4549048414300222
    C    4.705057091157604    -0.6760604310015748    3.4456931244982094
    H    5.302419156830968    -0.8738039600873228    4.326701390256058
    C    5.71633753615898    1.6627384882078615    -4.080474401349767
    H    5.73801930133764    1.2935090439816943    -5.097340147725803
    C    6.858314381038592    2.181020183926135    -2.0257738582162674
    H    7.769477268029828    2.2168083236840053    -1.4432276791918899
    C    6.884340681688776    1.7101538565991417    -3.3321306209249135
    H    7.8180781959575745    1.378882104451678    -3.7680417344053767
    O    -3.66565435527314    3.2911005652688985    0.13049646410439836
    H    -4.452816025245561    3.607040530469472    -0.3357988617044499
74
    Energy:       -2062.2494089130687
    C    -6.066437938411531    -0.7681178647602459    -0.15122636647622173
    N    -5.2871804758739165    -1.8371259456926678    -0.3275176731393667
    C    -7.380049762657809    -0.8639369308821918    0.2893730812423041
    H    -7.970936755306204    0.03191928813259001    0.4331805500418511
    C    -5.4094947085016365    0.5527372420227551    -0.44209983355889104
    H    -5.1132921361846195    0.5989276270744942    -1.492034152185337
    H    -6.094582140944606    1.382393264165948    -0.27787704521266976
    C    -5.803232893116407    -3.0354214067020977    -0.08679239931825071
    H    -5.140034534036289    -3.8776177682395256    -0.24904412068932016
    C    -7.9077538831399705    -2.120661430803122    0.5411601601343126
    H    -8.928105773691643    -2.2284688385403544    0.8853451851319887
    N    -4.209266827219038    0.7251071410581091    0.3840339906943513
    H    -3.7309225029491198    -0.1493646263915892    0.5588681154973905
    H    -4.393301492623332    1.2372373729507975    1.2346742672919626
    C    -7.106493046778158    -3.2326985294302464    0.3460125093382976
    H    -7.474414595932391    -4.233104323052323    0.5245797797361708
    C    -1.179381504727583    0.5706416109517485    -0.7028439767591222
    H    -1.608199159005116    0.3505130865394277    -1.67944445755367
    C    0.30267859332794295    1.0046808091078814    -0.8612390455571792
    H    0.7304960777302734    0.6818284016151566    -1.805427627153301
    C    -1.8281802821810578    1.794668520335309    -0.05560669178854068
    H    -1.7098878457705449    1.7223584637913045    1.034149943208604
    O    -1.3038016866676525    -0.5562874714528181    0.16840750306689947
    C    0.26750392555851876    2.5256866922472314    -0.6842135132052648
    H    0.7861755310568481    2.772169066540219    0.24320672721683678
    O    1.0731511970303653    0.44824868788488503    0.21221492695740674
    O    -1.0974190887375648    2.8879605917836315    -0.5760027671149033
    C    -3.2821541343849385    2.18865933959005    -0.3899370224270058
    C    -0.6948551570193132    -1.6835616298434748    -0.27553690458907665
    C    0.8047187812705582    3.3524746258882234    -1.8419124504391597
    H    0.9067319759656508    4.3914564232198385    -1.5284521405779437
    H    0.10378309383540812    3.2914009792660015    -2.672503698541256
    C    2.3592970029406324    0.12223693427531845    -0.054291198917994755
    O    -3.667709099471051    2.335792878447567    -1.5372563881191996
    C    -0.5550320157738072    -2.7328076849659326    0.7754177420887427
    O    -0.282266642261467    -1.7958231279232861    -1.399498665893585
    O    2.046562685134057    2.8770209502120316    -2.362559090392003
    C    3.133099511342611    -0.1677830034429542    1.1852432108370028
    O    2.824798753698726    0.09950351281974827    -1.1624495910323935
    C    -0.04730834853562888    -3.9717264993218153    0.392748284304585
    H    0.1938448518742294    -4.138858071729602    -0.6483910397915343
    C    -0.8510468653650857    -2.4860141120321932    2.1114936891357594
    H    -1.2290402766639306    -1.5170570352965769    2.404618049270559
    C    3.1112381883492444    2.9865649495396345    -1.5489153166005947
    C    4.5033319189934975    -0.37428583650738023    1.0561020316114038
    H    4.945395948986867    -0.3395547329415503    0.06892620415845453
    C    2.53760222851063    -0.1972753084649201    2.4418362896201553
    H    1.473554685139675    -0.03175078952099372    2.534022456406731
    C    0.1508449365332308    -4.962539434349145    1.3407111480547595
    H    0.5440826230260902    -5.926223751010616    1.0433703130174155
    C    -0.6448140995292796    -3.4778139510869837    3.058559419378093
    H    -0.8684446504191605    -3.284962842804489    4.099620139840814
    C    4.371965896858233    2.5413715837055335    -2.1944060793866345
    O    3.0325996913077673    3.409511804407773    -0.42127610535261245
    C    5.276031107129194    -0.6061195596268873    2.1822591986951725
    H    6.342784414778398    -0.7608694403326948    2.0844355471977694
    C    3.314171686336705    -0.4333981335763181    3.5657071584525792
    H    2.853753435471932    -0.4543683199517609    4.544818480323366
    C    -0.14667998720455944    -4.715192862534349    2.674264833428675
    H    0.014668122139596555    -5.4870862355377845    3.416487207469098
    C    4.4047099801917415    2.0836725416285464    -3.5062467633472814
    H    3.490799956329536    2.0390784547764524    -4.080724937127186
    C    5.5362919797828996    2.5865817462385947    -1.437025527242521
    H    5.479477771802847    2.941807395404844    -0.4167047640886613
    C    4.6815074853150795    -0.6353385612164213    3.4368643875314957
    H    5.286272878537258    -0.8136983512091035    4.317095437015825
    C    5.607969619977689    1.6794249980730365    -4.061422359938348
    H    5.636748112649074    1.3241921783972102    -5.08303386849414
    C    6.736547188038149    2.1793838911390613    -1.9943379413808306
    H    7.644928907717009    2.2158244015742197    -1.407668287298966
    C    6.772202131271419    1.7277045385779273    -3.307296272587357
    H    7.710741190231366    1.411679901368635    -3.743934356306106
    O    -3.6583891370103863    3.116820797537728    0.6222566245518188
    H    -4.322954618076125    3.7076717188848196    0.2550858476358741
74
    Energy:       -2062.207520362092
    C    -6.051418025264784    -0.7491106434234052    -0.13675790856187944
    N    -5.264408816827559    -1.8130436948044641    -0.30263877254507726
    C    -7.365967616184288    -0.852282118665766    0.30186529021327047
    H    -7.96546401948671    0.03898468712560389    0.4374764791335536
    C    -5.448847763296662    0.5775608968301642    -0.5073272037700445
    H    -5.192807349095524    0.5928723451505274    -1.5673503622633973
    H    -6.153569209803756    1.390782560307221    -0.33825273885721213
    C    -5.779885142276641    -3.014864061136085    -0.06858875276074933
    H    -5.116236384448084    -3.856122542837941    -0.2340690693077365
    C    -7.891413240969411    -2.110793268718706    0.5502873604999309
    H    -8.914293096573896    -2.222527540171924    0.8863861840218152
    N    -4.209500858637945    0.8600461011766714    0.24704419815901257
    H    -3.729335438455596    0.011430874013059198    0.5453338144443776
    H    -4.322005360911394    1.7297705222952715    1.00721738256447
    C    -7.085685664538958    -3.2194847575576886    0.3547617370743004
    H    -7.453200615649426    -4.221877426016404    0.5253579831614211
    C    -1.1356350766483863    0.5271213516717258    -0.720447922630022
    H    -1.5425044918303419    0.2864973641338388    -1.701880808989583
    C    0.3255478711291822    1.003648299430413    -0.8640848992560191
    H    0.7673298799997128    0.6931599242521616    -1.8057622819792953
    C    -1.8387091772354838    1.7336718639369746    -0.10261258405477067
    H    -1.7408328221708829    1.684307221858921    0.9896608671418983
    O    -1.2727240799904886    -0.5859321470459308    0.16060000517267226
    C    0.22999016953193643    2.5258207382646667    -0.6944304828208432
    H    0.7162370567741544    2.7887312528294426    0.2469706287995371
    O    1.0969108034578352    0.4706111427958297    0.21527124987578566
    O    -1.1573469846014905    2.843275987792286    -0.6323971646644362
    C    -3.304207388102607    1.8891451435594706    -0.50146659260467
    C    -0.6675943009679933    -1.7150316515187944    -0.27839033960460013
    C    0.7875490096780439    3.3574144325041697    -1.8413684028635662
    H    0.8971623361497619    4.394188746991942    -1.5242234820349474
    H    0.09441607330470628    3.303665203755369    -2.678643793684101
    C    2.3767435275318984    0.12360123659867042    -0.05206025900098921
    O    -3.6784788875084997    2.286887286133694    -1.5741986652129123
    C    -0.540694922532702    -2.7558224398153337    0.7768786142153162
    O    -0.25146919690807545    -1.8280260465272762    -1.4006600947163856
    O    2.0313894296217243    2.8744015050845557    -2.3566372406657763
    C    3.144780346536553    -0.1679365813613486    1.1886592224595605
    O    2.8390889660507703    0.08588453460176981    -1.160934656713769
    C    -0.0372268513004786    -3.9963098137210418    0.3988906541396608
    H    0.20441108886377019    -4.163529921037531    -0.6420298006285688
    C    -0.8420855610048369    -2.5004526270870793    2.110332531486814
    H    -1.2185211314313131    -1.5290954210917025    2.3981605591116453
    C    3.097663650486921    2.9835345364317254    -1.5445118869024157
    C    4.514146828976334    -0.37646246436357667    1.0612016978507253
    H    4.9558875445121835    -0.3422167238122636    0.0738839104938174
    C    2.5452876239121403    -0.1968949259435325    2.443412406781618
    H    1.480973066114596    -0.03069116869723322    2.533198470699867
    C    0.15582633197775309    -4.9831064800143965    1.3507530729333594
    H    0.5477528025249685    -5.947969532872442    1.0569418387368028
    C    -0.641185426660396    -3.488910366266362    3.0614641170216803
    H    -0.8671289962119452    -3.2913467625286486    4.10112175587596
    C    4.3611288403006165    2.5423922388437195    -2.1919163205716665
    O    3.018066933535192    3.4015571370395223    -0.4151786397936822
    C    5.284217375987122    -0.6084843677239294    2.1886183859626667
    H    6.350824498125797    -0.7638776996233297    2.09226404004272
    C    3.319286870000975    -0.4340845614245171    3.568560118584541
    H    2.856863589938102    -0.45484987146840805    4.546711516119619
    C    -0.14447822773360305    -4.7285780856237825    2.682400451314424
    H    0.013907565760248047    -5.497539994962238    3.4278345289263155
    C    4.396389932166238    2.0852130881333255    -3.5041337926124543
    H    3.4834254156292395    2.0396283079999478    -4.079956764686996
    C    5.526342593891466    2.588274386645049    -1.434980638528996
    H    5.470702540518644    2.9429531015386443    -0.4144302405367828
    C    4.686743497569902    -0.636880577194066    3.4418804690629647
    H    5.289658420297851    -0.8154713693383203    4.323147066106008
    C    5.600507536406754    1.6819028469844877    -4.05900853574665
    H    5.630337366164279    1.3266854974404862    -5.080677742788778
    C    6.727526357214785    2.18206716215871    -1.9919123878245912
    H    7.635947113889302    2.21879217182705    -1.4050649621051021
    C    6.764634534940653    1.7304618352968326    -3.3047991535572216
    H    7.7036885238916195    1.4148522045213192    -3.7410515711573606
    O    -3.799373319055408    2.9741805758730324    0.9555637273663669
    H    -4.305058469047937    3.713631340567162    0.6047245814494282
74
    Energy:       -2062.2629408769744
    C    -6.039617240974982    -0.7533154237730859    -0.14381991930782428
    N    -5.256670943252188    -1.819603721831336    -0.3064554079568337
    C    -7.3558433016860985    -0.8507689505786908    0.2982465516027221
    H    -7.954594833574698    0.041078477316851165    0.4326056357228661
    C    -5.441897459588035    0.5679150857995984    -0.5436147479495218
    H    -5.288823796439768    0.5862890060097957    -1.6239804369479351
    H    -6.123958271640021    1.3882089420925083    -0.3090054871540487
    C    -5.776248037730295    -3.0191851197038813    -0.0681686535703503
    H    -5.115313965841564    -3.862820343864471    -0.23180514549783596
    C    -7.884685497794539    -2.107509030812449    0.549401324819866
    H    -8.908204671973238    -2.2168826909101593    0.8852876483074222
    N    -4.133436580773313    0.8018059493525909    0.0653377762679813
    H    -3.702507667248429    0.009289259090403837    0.5259038104873992
    H    -4.310872571201969    2.1694786199883365    1.1315630456609667
    C    -7.082479958135737    -3.2188278077281884    0.3554142077417545
    H    -7.452931703872582    -4.22000506430421    0.5270523012203554
    C    -1.1122413392080532    0.5059351497705813    -0.7253774161119482
    H    -1.5127850051851612    0.25735003046514415    -1.708216039573063
    C    0.3373774622950896    1.0012358246401039    -0.86574337471163
    H    0.7823390206486903    0.6956645904402684    -1.8071940812419276
    C    -1.8494233038792929    1.6984766078520628    -0.1357123125698929
    H    -1.7878817152947681    1.6702532148783726    0.9605281210887402
    O    -1.2535260837061122    -0.5955415301077712    0.160271088309167
    C    0.2176340511712973    2.5233277925073603    -0.7002422195711002
    H    0.6928705832169584    2.7927224347168793    0.24565084237493026
    O    1.1067632799696259    0.4773379585859383    0.2163488238908099
    O    -1.1799791211657285    2.820450448512092    -0.6566594026896608
    C    -3.29510583472739    1.6821544120092982    -0.616382849389317
    C    -0.6578983715239504    -1.7278420747863117    -0.2787247255347249
    C    0.7829617455406371    3.3576947927082132    -1.8428314467824043
    H    0.8954389554513041    4.3937052023311285    -1.5240721247183258
    H    0.09267690821389615    3.306282452760082    -2.682315272594848
    C    2.383982157087859    0.12364808974062784    -0.05117404660373685
    O    -3.68232001829172    2.3244681784158803    -1.5615059634576438
    C    -0.5367533288697193    -2.7639053469058155    0.7782005187095812
    O    -0.244560126686399    -1.8430964388461308    -1.4018029504778848
    O    2.027855390434006    2.8723215260372754    -2.3551349813094875
    C    3.148905229704834    -0.16862513577768387    1.1899248042815804
    O    2.845133657277496    0.08195367259243885    -1.160373290602986
    C    -0.03486711749374163    -4.004232101687305    0.40107101614723645
    H    0.20644657761174828    -4.170053744143617    -0.6400884378110301
    C    -0.8400238529365462    -2.505015366553295    2.11068292638438
    H    -1.216306707153586    -1.5328900763288478    2.3968738427452574
    C    3.0948811350550733    2.982837423260016    -1.5437905936568357
    C    4.517778719076762    -0.3774148741655671    1.0628636889336676
    H    4.958850704499639    -0.34302178598792554    0.07527588633022238
    C    2.5475089119077525    -0.19721018751006075    2.443799722102392
    H    1.4830096984791545    -0.03078775262664935    2.5325078588954937
    C    0.1571302109581683    -4.989388935972763    1.3539279693637634
    H    0.548926190298074    -5.954175124263966    1.0606807412409556
    C    -0.6404237658621988    -3.4922918117043174    3.0628657142792775
    H    -0.8668537312918009    -3.2932901900070646    4.10210960367413
    C    4.359206576508798    2.5426476950817665    -2.1916281209733017
    O    3.0151925575288088    3.4004154659880843    -0.4143394611350153
    C    5.286829663846496    -0.6092557103666985    2.190654394123811
    H    6.3533347641933435    -0.7646434795178858    2.094632672717565
    C    3.32062316175846    -0.43446741311276266    3.56940118466564
    H    2.8575482659112805    -0.4550850955678364    4.547233422150908
    C    -0.14383449766441092    -4.732406569241221    2.6849715953390487
    H    0.01407236593360928    -5.500409432981412    3.4311866481746507
    C    4.395168815441485    2.085437115741443    -3.5038806747644164
    H    3.482445847163645    2.039622646235944    -4.080032112522482
    C    5.524719573673246    2.5886201980307626    -1.434823832812512
    H    5.469475046067493    2.943201821646612    -0.4142193603960847
    C    4.688161573546448    -0.6373423436002438    3.443366280053654
    H    5.290481657146428    -0.8158460409458184    4.324940804715706
    C    5.599483747886431    1.6822435171687982    -4.058673387096228
    H    5.629537854794703    1.3269886708202803    -5.080349807932426
    C    6.726136781323204    2.1824914154718007    -1.991618635461829
    H    7.634601375713019    2.2192303184428934    -1.4047441636915323
    C    6.763601428962249    1.7308231479029885    -3.304463816665301
    H    7.70276691077072    1.4152424069308387    -3.7406240812912643
    O    -3.9382641424037454    3.0681578113755656    1.2796199588945634
    H    -4.320723991996081    3.6501493435036783    0.6131863511165748
74
    Energy:       -2062.280117608137
    C    -5.941601268815505    -0.7800376330983969    -0.12404401399880809
    N    -5.109445836393779    -1.7954554328913983    -0.35018768864988487
    C    -7.26251366201043    -0.9698283172834471    0.2668354499080111
    H    -7.902184270871895    -0.11588817133069028    0.4482997097275287
    C    -5.413791810420064    0.6147640064667694    -0.355669230028948
    H    -5.548274003140361    0.8928155558317487    -1.4047150841732297
    H    -5.990897130435186    1.3454796591900855    0.21492148593400606
    C    -5.579050784300269    -3.032063890216295    -0.213874734541113
    H    -4.877245706441588    -3.832161312933978    -0.4212833920346364
    C    -7.738554042497976    -2.2622258941868845    0.4171239023895951
    H    -8.762298665051137    -2.4379616539080398    0.7216190028739706
    N    -4.0064192200057445    0.724475751560062    -0.037646321425237855
    H    -3.5350486611359373    -0.07430765841194592    0.3578283762627879
    H    -4.7382467999832505    2.7851386879514224    1.647430093196097
    C    -6.881418998896123    -3.320049700808786    0.1681713860757073
    H    -7.207433604677431    -4.346271796415333    0.2659101966922983
    C    -1.0785372427045363    0.5022967466375531    -0.7366956367253464
    H    -1.480591726164086    0.21856505476662857    -1.7087988440250594
    C    0.37112259097482153    1.0088662371810646    -0.8921856620233027
    H    0.8221524941086102    0.6878695764404077    -1.8258862161614673
    C    -1.810944885739256    1.713332187452927    -0.1652968069341687
    H    -1.7042702205223685    1.6957562400958774    0.9295484229825857
    O    -1.1979013352090848    -0.5803583006771276    0.17867438573212194
    C    0.23663868641481897    2.534183736374431    -0.7586475135866944
    H    0.6947703719943508    2.8263584893240328    0.1887790531597179
    O    1.1476985195590088    0.5168060985126433    0.20114271058821367
    O    -1.1611458440856326    2.81627776116444    -0.7336861684278774
    C    -3.2882144101937505    1.7613471015950333    -0.5207767263323709
    C    -0.615901846815543    -1.729017629659328    -0.2403360358966211
    C    0.8007665114953518    3.3583491345074026    -1.9078743634566107
    H    0.9132505121437829    4.3966840395986875    -1.5965258385192882
    H    0.10940065104811036    3.3021111587632395    -2.746059490673039
    C    2.416423419880504    0.13132915972186102    -0.06131747988150919
    O    -3.7868321316820515    2.6682562015980964    -1.1666510646332404
    C    -0.5414513171017998    -2.7631024610290367    0.825024197021099
    O    -0.18544777826235645    -1.8635474726116164    -1.354746315196901
    O    2.0438514830803567    2.8680101842901724    -2.416552978170612
    C    3.171628312422607    -0.17255073675043542    1.1840261476657334
    O    2.879028562418814    0.06756856426491792    -1.1689715030369012
    C    -0.07484635646656948    -4.022350033313187    0.4631975124848589
    H    0.1795522175814831    -4.203413908162864    -0.5723482655671085
    C    -0.8622024781525353    -2.489605968381362    2.150495201183461
    H    -1.2119525658022163    -1.5048349603850728    2.426620150966723
    C    3.1061617846634246    2.9709709935971804    -1.5985416972041788
    C    4.535933273632081    -0.41414380741775014    1.063701944088434
    H    4.982957692511293    -0.3901326028862102    0.07849013357452066
    C    2.563921371276539    -0.18922722815065254    2.435073355716137
    H    1.5031848119341487    0.0015188126528369273    2.5189902880981117
    C    0.064682816386169    -5.009579447803571    1.4236244555246675
    H    0.4280769038590601    -5.989106317649431    1.1422384683384341
    C    -0.7147980312987178    -3.478955383773645    3.1103321972367604
    H    -0.9553329030259193    -3.267786016761185    4.143999510532269
    C    4.366782318410835    2.5122809862285327    -2.238147773954285
    O    3.023480323570453    3.3933728156326546    -0.47110873771793244
    C    5.293506162603076    -0.6669727342549918    2.195022742329732
    H    6.356363523329787    -0.8487946358267374    2.1043273405014453
    C    3.325258896449955    -0.44764208896816693    3.564086639507146
    H    2.856537720552376    -0.45992573899625017    4.5393820984840465
    C    -0.25321986344529857    -4.736892141185672    2.747574604986407
    H    -0.1365512367951877    -5.5064989038536    3.4998910330063544
    C    4.398469538936663    2.046165891428581    -3.5471921873128167
    H    3.4867316760516465    2.012455655406672    -4.125716463716014
    C    5.529348626880737    2.543321005488995    -1.4768419079338444
    H    5.4757332478443    2.905088202433964    -0.45861853656505525
    C    4.688057290398521    -0.6834871693466452    3.4446920222221564
    H    5.281132386423031    -0.8792094541519259    4.328955346475656
    C    5.596858394974487    1.6174072775094697    -4.094748287475499
    H    5.623452590699284    1.254051843188184    -5.113613817697764
    C    6.725016071976171    2.111795378892054    -2.0266349110060538
    H    7.631843723960859    2.1357653750882517    -1.4367110768849034
    C    6.758624502706126    1.6500616343706107    -3.336142013777476
    H    7.693196369764883    1.313794276094519    -3.766414961155926
    O    -4.912286363554832    3.6851377813385646    1.3489578840670438
    H    -4.6147433508201585    3.6735573408407163    0.42622229696790154
74
    Energy:       -2062.283836102135
    C    -5.498667646478269    -0.8389098106322274    -0.019036642123013457
    N    -4.464077827850022    -1.550071901025752    -0.4686459620510908
    C    -6.7339400459015435    -1.414075962510921    0.2558064462671659
    H    -7.546783932512199    -0.8013741543854622    0.6232636545784761
    C    -5.294456196735083    0.6479393510236194    0.158199158225888
    H    -5.600523889590938    1.1779855340834386    -0.7460470870701124
    H    -5.9202650165513155    1.0339021915020077    0.9644878646053754
    C    -4.634483999593303    -2.854288727610682    -0.6637996411678276
    H    -3.7700080645597556    -3.393455172862316    -1.0350992925247402
    C    -6.898759999508356    -2.7754960790343843    0.0585493971435771
    H    -7.848557090143207    -3.24913740169187    0.2717914930989319
    N    -3.899903521908704    0.9463771382309905    0.39966994265405126
    H    -3.33124578540327    0.207244849775408    0.7831169912729169
    H    -5.097045995113212    3.589173401921666    0.3588344315790948
    C    -5.828256194861253    -3.5155072576750195    -0.41287904915886176
    H    -5.909735925376544    -4.580108962053778    -0.5837368986097483
    C    -1.1097242010733033    0.6738584815506253    -0.5782781340970875
    H    -1.5801256030920685    0.3890067058441211    -1.5192902381784408
    C    0.3438031894501123    1.1229210124860654    -0.8238840338390493
    H    0.7422306981343767    0.7474816936199554    -1.7613810153055358
    C    -1.7604552029233183    1.9263602233434833    0.0060278723243556475
    H    -1.548938676132426    1.958033354649488    1.0856245669151903
    O    -1.2240030644522815    -0.39034043566154547    0.35768441087467373
    C    0.2543706935408823    2.6576527853622633    -0.7538906357339916
    H    0.763295654213683    2.977693770595168    0.15777679558091626
    O    1.14993146958814    0.6508093038186828    0.25635468092598884
    O    -1.1347918797292318    2.9789222984495556    -0.6730880423954717
    C    -3.2645825048915285    1.9703878474092777    -0.2017653218094509
    C    -0.7697865068307898    -1.584873405176176    -0.0857641282170438
    C    0.7921436276994552    3.41107962339741    -1.9632123987085475
    H    0.9539951323632407    4.457609096299952    -1.7058611417342537
    H    0.0642736067515825    3.3425268342385075    -2.768886731340103
    C    2.373832816477115    0.16158158634926334    -0.03995107414883601
    O    -3.8237811124948555    2.8396344684759214    -0.84867476139952
    C    -0.7819619781406503    -2.6291097756059236    0.9726896163481042
    O    -0.38322205815756394    -1.7517223125874832    -1.2116115198632604
    O    1.995946230761665    2.8532995239207226    -2.499791951020997
    C    3.1329400162174768    -0.2016590671615703    1.1870866670433966
    O    2.796661453325255    0.0516105805756906    -1.1598386966944454
    C    -0.44828349997161365    -3.9271713235478463    0.6009188314881272
    H    -0.21401063089391795    -4.127154819602851    -0.43604168606691335
    C    -1.0695645043072415    -2.3338266283989793    2.301276438509355
    H    -1.3153072841977511    -1.3203588016700878    2.5863097516088556
    C    3.091178484710854    2.9386826981219163    -1.724010025898602
    C    4.4681096566930325    -0.5602413244691072    1.0362448661721715
    H    4.894256886103309    -0.5700413786315507    0.041611348146719934
    C    2.5522033264706243    -0.1744269404911371    2.450730260230494
    H    1.5136259865314015    0.10581474275793956    2.5578516703509813
    C    -0.41029735198676115    -4.930327555955259    1.55470417829734
    H    -0.1511363587401241    -5.940450051674567    1.2662051839542559
    C    -1.0256843226331371    -3.339936425424095    3.253727136865483
    H    -1.2435550584063548    -3.1123341495985275    4.288908344888867
    C    4.303820879383117    2.383471251035835    -2.38012859767259
    O    3.0698223228986956    3.4144419516597373    -0.6151634052003505
    C    5.223565505507135    -0.8873745032636945    2.150032015666942
    H    6.263868889872607    -1.1625779822109554    2.036119787469821
    C    3.3108853069943747    -0.5066639698583472    3.561862609428232
    H    2.862402661469611    -0.4859868972663644    4.5464597731967045
    C    -0.6979996313297392    -4.63624387065614    2.880999353335805
    H    -0.6629630559402143    -5.419573593035139    3.6273834806596827
    C    4.272654666486131    1.8741564381270037    -3.672924365893333
    H    3.347504089734215    1.8850538202672258    -4.23079970664225
    C    5.48355221441228    2.3589348916828037    -1.6454183697520333
    H    5.47898205865862    2.7560293846797363    -0.6390780214781158
    C    4.64476686012995    -0.8605800014809402    3.4121531025526908
    H    5.2358917852362605    -1.1157358014246648    4.282485951202405
    C    5.425268706949063    1.3439703224838075    -4.230054665242609
    H    5.4027900909207505    0.9455122112454746    -5.235812666926661
    C    6.632795000750633    1.8252132134905312    -2.204188713687626
    H    7.5520315042448445    1.8031807361478196    -1.633669191712685
    C    6.603455870638475    1.318286382682522    -3.496920085417819
    H    7.501570409966996    0.9009076567933941    -3.9337977122509966
    O    -5.690888169224738    3.6899146972910923    1.1214733081234818
    H    -5.910653965649866    4.624474388945292    1.1480002294476646
74
    Energy:       -2062.2828096549856
    C    -4.873014674817182    -0.78247242066395    0.043882591258953815
    N    -4.0359151488048655    -0.8676553539325684    -0.9933454917463446
    C    -5.514872300923659    -1.8905524549686816    0.5782060191884552
    H    -6.158269571865177    -1.7818703011558654    1.4421569646330454
    C    -5.082694850802754    0.5998692494444956    0.6205023042525059
    H    -5.584282673845471    1.2357284746187331    -0.1072249229662353
    H    -5.712798464725602    0.5583847573601003    1.5082945568190136
    C    -3.849448481625772    -2.058982625960352    -1.5530002984417284
    H    -3.167857552338066    -2.087510494239999    -2.3962822804436383
    C    -5.305545966279449    -3.130226472436823    -0.00657900825034884
    H    -5.789901441012654    -4.011331800796887    0.39339054126022516
    N    -3.8008808286570983    1.206930843983414    0.9309459381019509
    H    -3.145458893785716    0.5969261119769776    1.3967086829791306
    H    -5.464952705137514    3.4774643227348165    0.15401432319332878
    C    -4.468499629098822    -3.2188593195085935    -1.105097191810095
    H    -4.288969205403038    -4.161559914147677    -1.6046096996297783
    C    -1.14582837524463    0.840361044525354    -0.4056184482412329
    H    -1.6886691899556228    0.572622216320996    -1.3116041204638391
    C    0.2981821248573394    1.242630985548208    -0.731163450392452
    H    0.6601310278418887    0.806379378768303    -1.6578197041972396
    C    -1.7214680270775709    2.120381514204957    0.20298852608989304
    H    -1.4105950215015584    2.186551388573042    1.2567185081211891
    O    -1.2489300308376536    -0.21655368592212956    0.5398667439285023
    C    0.23260960525058372    2.7811474948670747    -0.7486067294165692
    H    0.8239231714437116    3.150202649035198    0.09125045539415168
    O    1.1275040743086508    0.8162600412054324    0.3502187158936407
    O    -1.1420638957423483    3.135165458069236    -0.5680918480301992
    C    -3.2377128945627174    2.136270091130223    0.11702587477473107
    C    -0.963291840513294    -1.4488980316645705    0.06905438137752672
    C    0.6829242097512807    3.4276535451093304    -2.052377871422017
    H    0.8658065582993648    4.49172228210328    -1.9039319610192735
    H    -0.09759365344720923    3.2918683690297095    -2.7984786263062067
    C    2.2947188359704738    0.21391375680933483    0.04207219142027804
    O    -3.85758420942087    2.871556718054516    -0.6260873052760838
    C    -1.1050999768047218    -2.5007068560561505    1.1106600589695146
    O    -0.6327283889470671    -1.64930078417347    -1.0698151457986829
    O    1.8474681581409125    2.8112315388016604    -2.616707523731049
    C    3.036837924555819    -0.20389716029664956    1.2604651804616835
    O    2.684204377134524    0.04523121800624223    -1.082729402663843
    C    -0.991021356608993    -3.827622766423501    0.7089315798039034
    H    -0.8095123443589642    -4.043217265572821    -0.3355385496792496
    C    -1.3232655578257826    -2.192221944691267    2.449511787170521
    H    -1.393017401461861    -1.1584673579301212    2.7585730033587317
    C    2.9805613584406423    2.9071452187061846    -1.8987417640117472
    C    4.341446931529086    -0.6517149771112515    1.090845836646518
    H    4.75685020517592    -0.6720506323527233    0.09163055496109526
    C    2.46372815427953    -0.16552252557081565    2.5277488256317193
    H    1.4469795888891388    0.18313711144517045    2.6444927282479247
    C    -1.1034428870714148    -4.842897116592763    1.643921596744196
    H    -1.015113062102242    -5.876081954563141    1.334606940016707
    C    -1.4314394499758956    -3.2108943664912704    3.3829883013108724
    H    -1.5946644590643415    -2.9722955239280293    4.425432237169938
    C    4.136169774985331    2.2391410453733482    -2.552767167362858
    O    3.0284493996877764    3.462029670598433    -0.8280261541752972
    C    5.077678901934578    -1.056053170806321    2.1916787606283923
    H    6.095216932176062    -1.4002998687997177    2.0648376990206865
    C    3.201448278720761    -0.5796046605365796    3.6258013141568033
    H    2.7593288529206927    -0.5565271701605918    4.613495344668622
    C    -1.322352465445719    -4.534794849534812    2.9800511897579405
    H    -1.4002952277994465    -5.328281420545959    3.7120698333312125
    C    4.044086790109443    1.666244350072055    -3.815459139915628
    H    3.1179990725778373    1.7354801646557323    -4.3680381473429595
    C    5.321188144218411    2.159476013081378    -1.8311750402847984
    H    5.36417317999764    2.619810707731909    -0.8531708356351675
    C    4.5067680736313    -1.020510413557009    3.457220238896463
    H    5.081662671211286    -1.3376424041967263    4.317501978745389
    C    5.136766539516068    1.000243598452948    -4.347704753263888
    H    5.06880596654638    0.5497638925908156    -5.329220629777036
    C    6.408909450101966    1.488582484408474    -2.3631667113215653
    H    7.329854973528487    1.4203069614192394    -1.799398608989843
    C    6.314098226063043    0.9025667984228718    -3.61863656300369
    H    7.161775640869335    0.3705075493241551    -4.031307661350556
    O    -6.243571209344067    3.625536812325122    0.7184737547825405
    H    -6.575633860428399    4.490652236401316    0.46328669319324467
