74
    Energy:       -2062.207520362092
    C    -6.051418025264784    -0.7491106434234052    -0.13675790856187944
    N    -5.264408816827559    -1.8130436948044641    -0.30263877254507726
    C    -7.365967616184288    -0.852282118665766    0.30186529021327047
    H    -7.96546401948671    0.03898468712560389    0.4374764791335536
    C    -5.448847763296662    0.5775608968301642    -0.5073272037700445
    H    -5.192807349095524    0.5928723451505274    -1.5673503622633973
    H    -6.153569209803756    1.390782560307221    -0.33825273885721213
    C    -5.779885142276641    -3.014864061136085    -0.06858875276074933
    H    -5.116236384448084    -3.856122542837941    -0.2340690693077365
    C    -7.891413240969411    -2.110793268718706    0.5502873604999309
    H    -8.914293096573896    -2.222527540171924    0.8863861840218152
    N    -4.209500858637945    0.8600461011766714    0.24704419815901257
    H    -3.729335438455596    0.011430874013059198    0.5453338144443776
    H    -4.322005360911394    1.7297705222952715    1.00721738256447
    C    -7.085685664538958    -3.2194847575576886    0.3547617370743004
    H    -7.453200615649426    -4.221877426016404    0.5253579831614211
    C    -1.1356350766483863    0.5271213516717258    -0.720447922630022
    H    -1.5425044918303419    0.2864973641338388    -1.701880808989583
    C    0.3255478711291822    1.003648299430413    -0.8640848992560191
    H    0.7673298799997128    0.6931599242521616    -1.8057622819792953
    C    -1.8387091772354838    1.7336718639369746    -0.10261258405477067
    H    -1.7408328221708829    1.684307221858921    0.9896608671418983
    O    -1.2727240799904886    -0.5859321470459308    0.16060000517267226
    C    0.22999016953193643    2.5258207382646667    -0.6944304828208432
    H    0.7162370567741544    2.7887312528294426    0.2469706287995371
    O    1.0969108034578352    0.4706111427958297    0.21527124987578566
    O    -1.1573469846014905    2.843275987792286    -0.6323971646644362
    C    -3.304207388102607    1.8891451435594706    -0.50146659260467
    C    -0.6675943009679933    -1.7150316515187944    -0.27839033960460013
    C    0.7875490096780439    3.3574144325041697    -1.8413684028635662
    H    0.8971623361497619    4.394188746991942    -1.5242234820349474
    H    0.09441607330470628    3.303665203755369    -2.678643793684101
    C    2.3767435275318984    0.12360123659867042    -0.05206025900098921
    O    -3.6784788875084997    2.286887286133694    -1.5741986652129123
    C    -0.540694922532702    -2.7558224398153337    0.7768786142153162
    O    -0.25146919690807545    -1.8280260465272762    -1.4006600947163856
    O    2.0313894296217243    2.8744015050845557    -2.3566372406657763
    C    3.144780346536553    -0.1679365813613486    1.1886592224595605
    O    2.8390889660507703    0.08588453460176981    -1.160934656713769
    C    -0.0372268513004786    -3.9963098137210418    0.3988906541396608
    H    0.20441108886377019    -4.163529921037531    -0.6420298006285688
    C    -0.8420855610048369    -2.5004526270870793    2.110332531486814
    H    -1.2185211314313131    -1.5290954210917025    2.3981605591116453
    C    3.097663650486921    2.9835345364317254    -1.5445118869024157
    C    4.514146828976334    -0.37646246436357667    1.0612016978507253
    H    4.9558875445121835    -0.3422167238122636    0.0738839104938174
    C    2.5452876239121403    -0.1968949259435325    2.443412406781618
    H    1.480973066114596    -0.03069116869723322    2.533198470699867
    C    0.15582633197775309    -4.9831064800143965    1.3507530729333594
    H    0.5477528025249685    -5.947969532872442    1.0569418387368028
    C    -0.641185426660396    -3.488910366266362    3.0614641170216803
    H    -0.8671289962119452    -3.2913467625286486    4.10112175587596
    C    4.3611288403006165    2.5423922388437195    -2.1919163205716665
    O    3.018066933535192    3.4015571370395223    -0.4151786397936822
    C    5.284217375987122    -0.6084843677239294    2.1886183859626667
    H    6.350824498125797    -0.7638776996233297    2.09226404004272
    C    3.319286870000975    -0.4340845614245171    3.568560118584541
    H    2.856863589938102    -0.45484987146840805    4.546711516119619
    C    -0.14447822773360305    -4.7285780856237825    2.682400451314424
    H    0.013907565760248047    -5.497539994962238    3.4278345289263155
    C    4.396389932166238    2.0852130881333255    -3.5041337926124543
    H    3.4834254156292395    2.0396283079999478    -4.079956764686996
    C    5.526342593891466    2.588274386645049    -1.434980638528996
    H    5.470702540518644    2.9429531015386443    -0.4144302405367828
    C    4.686743497569902    -0.636880577194066    3.4418804690629647
    H    5.289658420297851    -0.8154713693383203    4.323147066106008
    C    5.600507536406754    1.6819028469844877    -4.05900853574665
    H    5.630337366164279    1.3266854974404862    -5.080677742788778
    C    6.727526357214785    2.18206716215871    -1.9919123878245912
    H    7.635947113889302    2.21879217182705    -1.4050649621051021
    C    6.764634534940653    1.7304618352968326    -3.3047991535572216
    H    7.7036885238916195    1.4148522045213192    -3.7410515711573606
    O    -3.799373319055408    2.9741805758730324    0.9555637273663669
    H    -4.305058469047937    3.713631340567162    0.6047245814494282
