74
    Energy:       unknown
    C    -8.686898648648652    -0.11759729729729816    -0.1866959459459458
    N    -8.975498648648653    -0.6415972972972962    1.006704054054054
    C    -9.630098648648653    0.5532027027027039    -0.9551959459459459
    H    -9.348998648648653    0.9806027027027039    -1.909595945945946
    C    -7.251898648648648    -0.27479729729729885    -0.6357959459459459
    H    -7.028598648648648    -1.3352972972972972    -0.7599959459459459
    H    -7.1031986486486485    0.2016027027027017    -1.604495945945946
    C    -10.219398648648653    -0.5243972972972961    1.457904054054054
    H    -10.418498648648653    -0.9618972972972961    2.429804054054054
    C    -10.926498648648652    0.6656027027027038    -0.4765959459459458
    H    -11.681898648648653    1.1792027027027028    -1.0571959459459461
    N    -6.288098648648648    0.2781027027027012    0.3222040540540542
    H    -6.490998648648648    1.2628027027027027    0.4693040540540542
    H    -6.440898648648648    -0.1747972972972983    1.219204054054054
    C    -11.232798648648652    0.11100270270270184    0.753804054054054
    H    -12.232098648648652    0.16440270270270171    1.162604054054054
    C    -0.18399864864864868    -0.6063972972972962    -0.6082959459459459
    H    -0.49999864864865085    -0.9633972972972962    -1.586695945945946
    C    1.0154013513513493    0.3547027027027012    -0.7541959459459459
    H    1.5424013513513493    0.2162027027027017    -1.693095945945946
    C    -1.2630986486486508    0.2650027027027012    0.00820405405405357
    H    -1.1431986486486507    0.30710270270270124    1.099604054054054
    O    0.08860135135135137    -1.7167972972972974    0.23700405405405423
    C    0.37420135135134913    1.7435027027027028    -0.5865959459459459
    H    0.69630135135135    2.136502702702703    0.3800040540540542
    O    1.9226013513513494    0.12330270270270184    0.3279040540540542
    O    -1.0394986486486508    1.5357027027027028    -0.5769959459459459
    C    -2.6884986486486473    -0.1680972972972983    -0.30839594594594577
    C    0.93930135135135    -2.618097297297297    -0.2949959459459458
    C    0.6364013513513499    2.7640027027027028    -1.686595945945946
    H    0.42180135135134916    3.764502702702703    -1.312095945945946
    H    -0.011198648648648812    2.546602702702703    -2.532795945945946
    C    3.242101351351353    0.1924027027027017    0.054304054054053384
    O    -2.9550986486486472    -1.1256972972972972    -0.9899959459459459
    C    1.3206013513513493    -3.699497297297297    0.6542040540540541
    O    1.3539013513513491    -2.5324972972972972    -1.4221959459459461
    O    1.9614013513513493    2.7318027027027028    -2.220995945945946
    C    4.077201351351352    0.03880270270270169    1.276304054054054
    O    3.6882013513513527    0.3781027027027012    -1.0470959459459461
    C    2.0636013513513527    -4.760397297297297    0.14530405405405422
    H    2.302501351351353    -4.768797297297297    -0.909595945945946
    C    1.0014013513513493    -3.653897297297297    2.007204054054054
    H    0.42300135135134914    -2.8245972972972972    2.3914040540540538
    C    2.944801351351353    3.143402702702703    -1.402195945945946
    C    5.430401351351352    0.3385027027027012    1.158104054054054
    H    5.809001351351352    0.6526027027027038    0.19400405405405424
    C    3.550701351351353    -0.36429729729729876    2.499304054054054
    H    2.496401351351353    -0.5921972972972962    2.582204054054054
    C    2.488801351351353    -5.773897297297297    0.9870040540540541
    H    3.068801351351353    -6.598797297297297    0.5933040540540541
    C    1.4379013513513492    -4.665897297297297    2.848904054054054
    H    1.2033013513513493    -4.624697297297297    3.904604054054054
    C    4.263901351351352    3.208502702702703    -2.083595945945946
    O    2.754801351351353    3.434902702702703    -0.24679594594594578
    C    6.258201351351352    0.2419027027027017    2.264004054054054
    H    7.309401351351352    0.4858027027027012    2.177104054054054
    C    4.385701351351352    -0.47119729729729876    3.601304054054054
    H    3.982501351351353    -0.7885972972972961    4.554504054054054
    C    2.1800013513513528    -5.7236972972972975    2.340304054054054
    H    2.5215013513513527    -6.508297297297297    3.003404054054054
    C    4.394101351351352    2.958302702702703    -3.444195945945946
    H    3.5211013513513527    2.697602702702703    -4.024795945945946
    C    5.380201351351352    3.5304027027027027    -1.3193959459459461
    H    5.251801351351352    3.713402702702703    -0.2603959459459458
    C    5.735401351351352    -0.1652972972972983    3.484804054054054
    H    6.382001351351352    -0.2446972972972983    4.349804054054054
    C    5.641801351351352    3.037002702702703    -4.041795945945946
    H    5.743801351351352    2.845102702702703    -5.102095945945946
    C    6.627401351351352    3.6030027027027027    -1.918695945945946
    H    7.499301351351352    3.851902702702703    -1.326695945945946
    C    6.757101351351352    3.357602702702703    -3.280195945945946
    H    7.731101351351352    3.417602702702703    -3.749295945945946
    O    -3.568298648648647    0.6346027027027038    0.26720405405405423
    H    -4.512898648648648    0.34320270270270126    0.10350405405405413
74
    Energy:       unknown
    C    -8.618693590878435    -0.23659960363459753    -0.1020935722666029
    N    -8.726614460409836    -1.0018485651529547    0.9852513035762845
    C    -9.710029802171562    0.40202568920718523    -0.6795182864758796
    H    -9.575951978078857    1.0167500593259915    -1.5619508940059161
    C    -7.22701444238593    -0.1398653325437711    -0.6777023739795063
    H    -6.885829541394166    -1.120741965808225    -1.0033573639626565
    H    -7.258442855722768    0.4769511854483191    -1.5757582794427645
    C    -9.937997264502808    -1.1637513062003293    1.5121947961565987
    H    -9.988919629534857    -1.80999924496531    2.3825502429399585
    C    -10.966304798703785    0.234045054417909    -0.1159726451427867
    H    -11.843359103469776    0.6732553382862474    -0.5808688944552033
    N    -6.256043678602251    0.4317109193637989    0.2420342084303323
    H    -6.58141429219354    1.3238842006549352    0.6046692064141289
    H    -6.143087451510537    -0.10565546090300308    1.1315052052084509
    C    -11.089911987223498    -0.5856405746417925    0.9947236477059178
    H    -12.05139836567401    -0.7294176274081043    1.476460075318133
    C    -0.23219442374102062    -0.41423419276774565    -0.6940293989879184
    H    -0.54631601728046    -0.7613289198105143    -1.6761843354129011
    C    1.0254599697620927    0.47490399859625154    -0.823424650870053
    H    1.56623995984811    0.298132020508831    -1.7479160114193164
    C    -1.2689863375506585    0.5245999933031554    -0.10791362266719509
    H    -1.1578314040760824    0.5745060508134201    0.9843519129575875
    O    -0.04362408652152946    -1.531366588147611    0.16539216455059777
    C    0.46245980170283923    1.9002469990126178    -0.6837374746246228
    H    0.7853189549790143    2.2864557411975666    0.2853508046157019
    O    1.8921978054202642    0.20445985430947014    0.28189401472792874
    O    -0.9601207720845071    1.7718366279621414    -0.6999893289949365
    C    -2.7142550521313993    0.17191640513764905    -0.4410878492725971
    C    0.7635180015931279    -2.486177021798898    -0.34293931488858154
    C    0.8044826458570097    2.8917622201036717    -1.7884540146641164
    H    0.6343479766702721    3.9069748721075443    -1.4316092078205493
    H    0.16803655369752996    2.6989377387988536    -2.6486468862659067
    C    3.2199916114245113    0.19105539127557591    0.03911163927189842
    O    -3.04018658165572    -0.6556153640398324    -1.2543953593012271
    C    1.079911171400373    -3.573425071504218    0.6249678474922417
    O    1.2035237608898492    -2.435135684968948    -1.4638084191421223
    O    2.1372091555316217    2.7784810321068494    -2.290291335920764
    C    4.015667032802342    0.00248138069374362    1.2824099783723857
    O    3.7020233243866    0.34160861235896206    -1.0523000045914588
    C    1.7953646097143034    -4.667741247731387    0.14588540225001465
    H    2.0707343755919174    -4.689616679661034    -0.9002116298670323
    C    0.7385195283363974    -3.4967083486478323    1.9716150120496965
    H    0.19517197763644    -2.634201871373717    2.3348818619751466
    C    3.121374435976583    3.144818727259543    -1.4511676290444662
    C    5.386830492229267    0.21934441300483823    1.1945730994323465
    H    5.80616429578639    0.5010381842047184    0.23728401001338886
    C    3.435683823589834    -0.3450108356113532    2.4982738722214877
    H    2.3676734129214108    -0.5083174068741623    2.557434464545748
    C    2.2495962014161024    -5.635674998261207    1.0266646070865417
    H    2.862975285252885    -6.452674058910064    0.6677014548789828
    C    1.1164750792109999    -4.516834542933769    2.8330680691852783
    H    0.8564658265212156    -4.456793958364281    3.882035245823692
    C    4.458036065067631    3.1261590160969552    -2.099910404988384
    O    2.91987398003606    3.462321057053243    -0.3045830748136704
    C    6.179547621600631    0.09365909355007275    2.323405158884544
    H    7.245387112829022    0.2723851284429693    2.259560049060372
    C    4.233646022640957    -0.47342597332965114    3.625191493868027
    H    3.789340414165246    -0.753122352761731    4.5717485992995925
    C    1.9102411257597918    -5.559436197256523    2.3715301145958607
    H    2.2736030050103087    -6.307622054858851    3.064936364782416
    C    4.607763928398219    2.851743191158657    -3.453792277865892
    H    3.7363372519509577    2.6335786148451694    -4.0539673212600595
    C    5.571206193532252    3.389653632790883    -1.3094847010117272
    H    5.426346292341087    3.5949694521570654    -0.2567147772885839
    C    5.5979931050953    -0.22548270713281793    3.544190021143054
    H    6.20953604246813    -0.2822554670148339    4.43582571799246
    C    5.871964698884784    2.8599315672650905    -4.021426465974108
    H    5.9825327977616904    2.712502928992761    -5.0887999856439645
    C    6.835110658246513    3.383847724200784    -1.8770875955103563
    H    7.704316009589209    3.5893688172202656    -1.2648832349480919
    C    6.984203151044162    3.127325541036606    -3.2347430084936017
    H    7.959982078159796    3.223938583720623    -3.6969408575731024
    O    -3.601157858106904    1.0868241919950417    0.09993923270648411
    H    -4.534698849126153    0.9053299750330955    -0.18094841067465778
74
    Energy:       unknown
    C    -8.419938622453879    -0.3823815586901841    -0.017217132748639084
    N    -8.330499743207833    -1.3350068317443304    0.9111731795520582
    C    -9.63342999104076    0.1803521679866881    -0.398082357412324
    H    -9.66046040417689    0.9445343909726066    -1.1671796496463707
    C    -7.112570830965811    -0.023281356846744355    -0.6755525889594978
    H    -6.690661689157681    -0.8794162450210422    -1.19432956652416
    H    -7.3275845536973945    0.6997349979269608    -1.462813093990372
    C    -9.46465753888602    -1.7707808281982387    1.45934088555631
    H    -9.352960531655777    -2.5731999315097562    2.1826832909585203
    C    -10.805276294449053    -0.25994160010347217    0.20066845971660444
    H    -11.77488475642605    0.1089690512749848    -0.12584784673802948
    N    -6.14318974123548    0.5674673576531343    0.21766022115485045
    H    -6.5611378681923505    1.3113639879994228    0.7727565542030418
    H    -5.737168117652296    0.048364941120773844    1.0741782035195302
    C    -10.725113519567001    -1.285861189876907    1.1320603098264244
    H    -11.621687602061666    -1.6380310153126363    1.6373641176596445
    C    -0.3153517077820933    -0.20141314607855923    -0.7660750598966004
    H    -0.6377740660550276    -0.5355595792643949    -1.7496978266990204
    C    0.9976026493209882    0.6080247846624012    -0.884343442268694
    H    1.543509740903401    0.3911329443007479    -1.7972068634428116
    C    -1.2973378352895997    0.8038846010650136    -0.1984036891166261
    H    -1.1819058996549072    0.8589331381111462    0.8934646541478323
    O    -0.20843733609747941    -1.3220106443240323    0.10303130315303946
    C    0.5205037005533913    2.066487932385635    -0.7671820450604241
    H    0.8524389129184105    2.444377144852762    0.20213553644395602
    O    1.8278096049731847    0.2977262658376568    0.23791356375773018
    O    -0.9066575014681352    2.0221880078519687    -0.7987599327412287
    C    -2.7624059859289143    0.536761420164578    -0.5329408082343485
    C    0.5455581303233205    -2.3290810461564067    -0.3878929900767888
    C    0.9395440688367142    3.0220568439209283    -1.8770824619419804
    H    0.819912812480449    4.050335883348891    -1.5379810258409816
    H    0.31094737171734843    2.853997386105533    -2.747943153557461
    C    3.1568961191968006    0.20239866178400365    0.01942449037778807
    O    -3.1366172833441426    -0.13770137411366465    -1.4595806441293595
    C    0.796849842887153    -3.4204530975229335    0.5955592187099775
    O    1.0008878389559726    -2.3145732705314352    -1.5045182914166966
    O    2.272486710009326    2.8242201307369337    -2.3509124430753188
    C    3.9178139073380596    -0.023284599071178618    1.2782700383820231
    O    3.6659281333581943    0.30935629171508155    -1.0646653480805965
    C    1.472880200031515    -4.550763134118794    0.14159362204027515
    H    1.7700359428398436    -4.593079338872428    -0.8980971630378058
    C    0.4323439964754046    -3.316061515715939    1.9347052005436822
    H    -0.0714068799095245    -2.4223692213992676    2.2805898074061988
    C    3.2595295724316253    3.1433084760264745    -1.4960203802240946
    C    5.300764038610077    0.11131115193721962    1.2149434941968054
    H    5.753852422558329    0.3573845939456374    0.26320191436882623
    C    3.2950237783285012    -0.3133190983797203    2.4880442117471375
    H    2.218319128899812    -0.4146787956970819    2.5275195957641174
    C    1.9089849565080361    -5.503580701921206    1.0487109087597777
    H    2.538602092976572    -6.321103932228659    0.719533345464233
    C    0.747523253819612    -4.345495686213398    2.811376951527934
    H    0.46981476373013364    -4.263981091413385    3.854426110853829
    C    4.605961901218899    3.0348453412289182    -2.114813343410481
    O    3.053977022520712    3.488036337498885    -0.3580067132788937
    C    6.063240233924157    -0.04930038414831228    2.360439957929513
    H    7.13868460484007    0.06650858101124912    2.3157979370496244
    C    4.061815136827255    -0.46810833887086367    3.633175137772903
    H    3.584155318080084    -0.7080297857067697    4.574262512693448
    C    1.5526247092747898    -5.395977727222634    2.3872031661887325
    H    1.924872063929319    -6.1150414518644824    3.106484543455767
    C    4.768986805185328    2.7258633412109874    -3.459675620662696
    H    3.8995394016725906    2.5502578304745707    -4.07645441970413
    C    5.7153601796339055    3.235244313311485    -1.3010473386769978
    H    5.560172742311022    3.463696324047896    -0.25453681110311427
    C    5.437886764271458    -0.2851499414595254    3.5788546417647207
    H    6.02263843771995    -0.323156556995197    4.489069704918396
    C    6.04335079011873    2.6601997863471802    -4.00060751208162
    H    6.16620224807658    2.5362049420344612    -5.070185120822666
    C    6.988691130295992    3.1503166421891224    -1.8403350927998239
    H    7.854970767668237    3.309999897768997    -1.2106159731377912
    C    7.152239390610242    2.872094385426632    -3.1921756792061013
    H    8.138117520019916    2.943198462559576    -3.6392947170921106
    O    -3.636674126395437    1.5489291658309308    0.039029382073900394
    H    -4.554060432430175    1.4711061119655071    -0.30857202680249624
74
    Energy:       unknown
    C    -8.149738385185147    -0.5173808147500981    0.025874383517142618
    N    -7.862749845912199    -1.6055815699508527    0.7385961423620521
    C    -9.45184556414888    -0.05831817235878423    -0.14680916247498393
    H    -9.642018090595885    0.8139588629846894    -0.7636635687633239
    C    -6.959156895938723    0.10962194301246184    -0.6486430622702436
    H    -6.493274189337953    -0.5773814543843325    -1.3463129919096164
    H    -7.344583487309846    0.9122348334005439    -1.2778925309256934
    C    -8.884341515410046    -2.2932075330478354    1.252442873796642
    H    -8.61127948404905    -3.1998741785689924    1.7854243624071624
    C    -10.504413812430943    -0.7535259316680961    0.4324060811816791
    H    -11.541389191681905    -0.48258766401449343    0.23844048998589337
    N    -5.996061265546323    0.683958695764934    0.24845210296228604
    H    -6.455392002631817    1.2328239308861477    0.9738431846856671
    H    -5.312078067767902    0.2566910407473679    1.0222945549900557
    C    -10.21700260632438    -1.9133597263806674    1.1411668241534974
    H    -11.01716046138525    -2.456403796151873    1.6446198806453338
    C    -0.41852932420805206    0.004048365944432147    -0.7980238015981782
    H    -0.7578847960134188    -0.31541415149346336    -1.7805310315094398
    C    0.9422389076242362    0.7324821324244655    -0.9161973533018908
    H    1.4803543700966308    0.4778928289946009    -1.8239480968782433
    C    -1.3379339360629225    1.06950066845601    -0.23777472812475345
    H    -1.2139192397823384    1.1224961997599598    0.8534339651743057
    O    -0.38432290380941647    -1.1163516485662823    0.07748080500318204
    C    0.5533341954298974    2.2178757873942216    -0.8114495552007593
    H    0.9056982006747599    2.584561367275006    0.15494928027652577
    O    1.746423505790211    0.3819138948109673    0.21258778454217642
    O    -0.8735543632092029    2.258401773370418    -0.840605198586924
    C    -2.816994669807852    0.8887868609382691    -0.5770607386242483
    C    0.3087760463148569    -2.17111282400638    -0.40516543992406645
    C    1.0310815921627814    3.1354344388331103    -1.9298503465975994
    H    0.9638413080211027    4.173303685051479    -1.6063527655587668
    H    0.4016240587332301    2.989996399412389    -2.8039372097055333
    C    3.069241644244397    0.2065111943171536    0.0031136943263500535
    O    -3.2243669636297008    0.38215231420163237    -1.5930190279648586
    C    0.5063368029572588    -3.264505325220562    0.5894855054140399
    O    0.7652927387841747    -2.1918101016871456    -1.5220307253165462
    O    2.3539414250520863    2.856981079201017    -2.390669195555541
    C    3.808420702662682    -0.05192189631166468    1.268648858503679
    O    3.590038009093808    0.2750973947759485    -1.078314438025209
    C    1.1364486451452864    -4.42800661287502    0.15174905610880096
    H    1.4435591339431864    -4.4903529891621    -0.884231321806511
    C    0.140616247341001    -3.130365539398064    1.9260846963840663
    H    -0.3212085926341663    -2.209527467559568    2.2605018505736925
    C    3.3501014602992907    3.1304891563737063    -1.5305685601840386
    C    5.197120616140504    0.003849619253495105    1.2144965353611583
    H    5.6701108992074065    0.21243919478454212    0.26345778394958097
    C    3.161673778359864    -0.2828107131444887    2.4786428051312375
    H    2.0805902247917865    -0.32368166006687205    2.5106076054446804
    C    1.5469533742914512    -5.377314001661822    1.07533425769517
    H    2.172184452284584    -6.205777253986881    0.764809940302465
    C    0.3994238242179675    -4.168362187156684    2.8122096319377445
    H    0.11916387817945362    -4.064718007452687    3.85269646959662
    C    4.693571046854831    2.9369245321151616    -2.134520188754889
    O    3.1547370739292058    3.5032285070571985    -0.3995677773187589
    C    5.941077480715901    -0.19116152413955026    2.367225125813668
    H    7.021551067195526    -0.1352376795735261    2.3298788212405284
    C    3.910183898818508    -0.46175764769852196    3.63236157913964
    H    3.413194868345934    -0.6579979493009747    4.573429743570916
    C    1.1922826026092042    -5.237945871176002    2.4115306137870616
    H    1.5742374403761903    -5.933370493647107    3.1490018144436718
    C    4.852064276167946    2.59577420656407    -3.472118209559981
    H    3.9803467432363235    2.4629367132632294    -4.096348862857511
    C    5.803933304059308    3.08039221148227    -1.310262311993865
    H    5.651667390658923    3.335909696601522    -0.2695979306903017
    C    5.293897113345825    -0.34377880575408093    3.587907131134155
    H    5.866374720954846    -0.3657926250871221    4.506210873850081
    C    6.126237876601466    2.454273788044953    -3.999175657236266
    H    6.252827894333552    2.335212652147774    -5.0694361026950965
    C    7.075772255889124    2.917491922819296    -1.834694443894415
    H    7.943007243058331    3.0341578326406404    -1.1969626823604032
    C    7.237251817938535    2.610376066079026    -3.1806472189959694
    H    8.228929940094865    2.642597601794924    -3.621421181827254
    O    -3.679181164331351    1.9804717886050558    0.06309793031245865
    H    -4.587355277883572    1.973444635818508    -0.29669162071337907
74
    Energy:       unknown
    C    -7.8360858180659    -0.6338171167875895    0.024336202509113596
    N    -7.367602920307634    -1.7904147625687736    0.4874308647083924
    C    -9.190874628204018    -0.31541805092066966    0.04520643976383819
    H    -9.533929855624196    0.6188117901362155    -0.3884578047929293
    C    -6.783751805525918    0.24139382178036872    -0.5984922066726677
    H    -6.308373209107663    -0.24706520968390386    -1.4396676516793179
    H    -7.321903702746971    1.0773675537368486    -1.0453127393708015
    C    -8.255922417703477    -2.6866561122004327    0.9241482030907278
    H    -7.83698347401269    -3.6392581175720644    1.2380174520287435
    C    -10.102030963590428    -1.2287692252349207    0.5585434638222484
    H    -11.178039057440799    -1.0599422635836908    0.5091953527635387
    N    -5.825968412493286    0.7778316106771528    0.3179764744868329
    H    -6.292858707008904    1.098812631610275    1.166556493907751
    H    -4.924147034104432    0.573818289198272    1.0225371806991594
    C    -9.626278327623378    -2.4604811184247004    0.9941798635023592
    H    -10.31330465928449    -3.17582262839425    1.451670705365287
    C    -0.5378441829716126    0.19157329556017705    -0.7891099600693363
    H    -0.8986138387224337    -0.10995231473038429    -1.7694722173025854
    C    0.863285463387316    0.8390955311898787    -0.9134013945903791
    H    1.3825716479833488    0.5530667832415517    -1.8228330191202657
    C    -1.3918586485649793    1.309011849475458    -0.2289112994996533
    H    -1.2612291565230547    1.3512566896323956    0.8621068734956558
    O    -0.5681156056466676    -0.9269299618391154    0.08939744592636335
    C    0.5636098849434272    2.344980741080865    -0.8095794244182871
    H    0.9455458975869905    2.6940599030735197    0.15204640496535726
    O    1.6510880266229313    0.4439612543462132    0.21174797524965228
    O    -0.8579223664798976    2.470417807005027    -0.8237705506245458
    C    -2.8780446810261764    1.2171098623941494    -0.5784615928434722
    C    0.05926659197405317    -2.023511727664493    -0.39207400083682886
    C    1.0848212295067057    3.2278479611227966    -1.9367752200383068
    H    1.0753265348686867    4.27036617495044    -1.6219054096187309
    H    0.44429842331112374    3.1111335037403776    -2.806981737166264
    C    2.961319881656314    0.19336201441851023    -0.003330726270931812
    O    -3.304948642260824    0.8903045897505545    -1.658662643052623
    C    0.22809397684044924    -3.111536465744333    0.6147584309285841
    O    0.5075671566788295    -2.0749243547920537    -1.5118910857839778
    O    2.3866451759491825    2.8712202012012846    -2.403087071959144
    C    3.6959421890512645    -0.08143211608775654    1.2614442864660689
    O    3.478815006043114    0.2251247778209673    -1.0879137417179225
    C    0.8062653602983971    -4.3052730082669    0.18552240463426486
    H    1.1066183470381104    -4.389278922295196    -0.8510280046541833
    C    -0.10948667285752771    -2.943614922892527    1.9552859112106176
    H    -0.5275049995280747    -1.9992381818336222    2.282809925911151
    C    3.401169166078081    3.094170992440619    -1.5499021325233397
    C    5.085199342644099    -0.09939891633012798    1.1983944525262546
    H    5.562447129412572    0.07219575721173249    0.2420913854663112
    C    3.0464605221787364    -0.25335092218783856    2.4798137280550816
    H    1.9648082897461498    -0.2388333076331901    2.517991776967915
    C    1.1935893351735627    -5.256459990639583    1.1177361507819783
    H    1.7913954472351146    -6.107437081738299    0.8133910095634369
    C    0.10475417342484407    -3.9866065317701525    2.8482834406732205
    H    -0.1573769010375995    -3.8585825490969534    3.8908250521274543
    C    4.728897987322455    2.8327464628251744    -2.1628688924102937
    O    3.2327427411208127    3.484364541490565    -0.42042918875057894
    C    5.825084815231051    -0.325642890093429    2.3484182877415773
    H    6.906728751051344    -0.32553068857543294    2.304340975255223
    C    3.792256889145608    -0.45652591375212    3.6313180549401007
    H    3.2923701895368804    -0.6100375012070564    4.57866213682972
    C    0.8647956070657076    -5.083610810706609    2.456782718246269
    H    1.250123966987088    -5.768439735688205    3.202492562084409
    C    4.860814196288054    2.4668743505692694    -3.496816214005943
    H    3.9797819326206842    2.3746702271837177    -4.115286491906706
    C    5.850720784920439    2.931943935830689    -1.347825497648893
    H    5.719322088321815    3.215554285013789    -0.3116088068166468
    C    5.179782324344954    -0.40293145599352637    3.5775267340019368
    H    5.756476298662914    -0.43093382406970243    4.4928446292438196
    C    6.122548330704599    2.251806407773874    -4.0291180229108505
    H    6.236139115216027    2.117304125596258    -5.099358963647592
    C    7.108964998455861    2.6968352039547225    -1.8773600224852633
    H    7.985003052225346    2.7764670812923122    -1.2460610117101165
    C    7.245437150251579    2.3585244379139065    -3.2186761272787314
    H    8.234466835123378    2.3456635734188613    -3.6676615545721485
    O    -3.733370108627145    2.3778449219463775    0.15812670605852863
    H    -4.638991457139786    2.4187637593944316    -0.1898657272486892
74
    Energy:       unknown
    C    -7.491290664935102    -0.7097948856823884    -0.010228081699001725
    N    -6.865512988114832    -1.8673920186118687    0.18361835711080285
    C    -8.862931481397693    -0.5647563839133137    0.17780307631778935
    H    -9.342665312225332    0.38120337008033983    -0.05514893467214762
    C    -6.592266064706084    0.3789511188680734    -0.5247474218004257
    H    -6.147389508144494    0.10533726568406131    -1.4718094767589205
    H    -7.25825886809587    1.2058290022651545    -0.7695749716651584
    C    -7.609114129446443    -2.928521125973063    0.5080907266368646
    H    -7.0683666238503555    -3.86818859667114    0.589403295432712
    C    -9.619564127503052    -1.6567146791622824    0.5832548097915322
    H    -10.70644253772892    -1.6137687445677176    0.6642579354172474
    N    -5.618762058143276    0.8478454333516722    0.4067570317776428
    H    -6.047289004213863    0.9250073954951132    1.3307121592750233
    H    -4.618460590709212    0.9818251014286594    1.0880603136890745
    C    -8.98221905366391    -2.8850444407846236    0.7257260286728536
    H    -9.540181066450348    -3.742459311981764    1.1120518032616953
    C    -0.6845002849318702    0.34013240403743433    -0.754215014756004
    H    -1.0686696739182635    0.06819791164603563    -1.734295680643954
    C    0.7537082184719499    0.899691417397271    -0.8817340433270124
    H    1.247454593296526    0.5896379368573859    -1.7976205699059082
    C    -1.4659429664739945    1.5037340777128638    -0.18394091458040632
    H    -1.3339992189956715    1.5225246873220475    0.9076228758149089
    O    -0.7814527179043986    -0.780485511697629    0.11727281347607205
    C    0.5516162055088928    2.4205108444472314    -0.7641211685902719
    H    0.9684399655669516    2.739210224006378    0.1934642818148171
    O    1.5246013236466975    0.44632971768252766    0.23277584677885474
    O    -0.8580666205310705    2.637648330558463    -0.7567999390685929
    C    -2.9514483310904422    1.5136346048145948    -0.5489862651207463
    C    -0.22630309651021407    -1.9127302325441042    -0.3725783856904877
    C    1.1112820289688403    3.2745568292648835    -1.8954754527928084
    H    1.1685377458348105    4.314890359167464    -1.5787784289867905
    H    0.45398938646874276    3.19985423912153    -2.757723777200834
    C    2.8173003501475895    0.12334166506108056    0.005023691068313035
    O    -3.388267751959768    1.3723298402707098    -1.6650918509830945
    C    -0.021362835988607127    -2.977601921693042    0.6531409193994576
    O    0.20293277774415097    -1.986168794171257    -1.4991455972956462
    O    2.3809979559787315    2.837711241684193    -2.3812157363682505
    C    3.56978391226366    -0.10603631047922293    1.2684185649965933
    O    3.321209200596716    0.11756527346690834    -1.0863481299323454
    C    0.5067973525899104    -4.195064769182857    0.225471903461673
    H    0.7840490447092409    -4.29912292528585    -0.81573277231406
    C    -0.30141238262181963    -2.775713355479715    2.0023936475593698
    H    -0.6721574134571702    -1.8108455073715293    2.3279987772543747
    C    3.4193776434902747    2.9941907443351834    -1.542049247364248
    C    4.955786211111643    -0.17900154771216964    1.181502356136542
    H    5.422041278933261    -0.040898643542626005    0.21440974960605969
    C    2.9373630354132563    -0.21441978146953233    2.5029663054496996
    H    1.858138003182518    -0.15265446961249327    2.559505883781388
    C    0.8859995642126328    -5.147746378041233    1.1596910762480555
    H    1.4450364785375718    -6.023378795148999    0.8510702253467937
    C    -0.10606943031889464    -3.8169212185410544    2.902248595351625
    H    -0.33081462144878127    -3.665778069840728    3.9503901752477755
    C    4.72404324914117    2.7093324731617243    -2.193055985239585
    O    3.289868837214856    3.3857018229949696    -0.4078748269031563
    C    5.7077585743161325    -0.4033494524430491    2.3242553205174032
    H    6.787483754177772    -0.44813744729646204    2.261163067865762
    C    3.696469139768297    -0.4098321766820248    3.647072671478447
    H    3.209166160132497    -0.5220837106390464    4.606607181830119
    C    0.6059119479123182    -4.944112052949638    2.5055251134830634
    H    0.9713589698921796    -5.643158728499542    3.248005091910549
    C    4.811193594887949    2.3283704283899316    -3.5264704266686495
    H    3.913714447150252    2.266218852961696    -4.124749934018938
    C    5.871399686383264    2.8071891296099976    -1.4143980891346484
    H    5.776395700571656    3.1198797351573777    -0.3826009499216508
    C    5.083788078926065    -0.41306107520429464    3.566894172811055
    H    5.676206465411112    -0.45058650265858186    4.471649113941061
    C    6.05005611346997    2.050157600695598    -4.082790004806588
    H    6.13203871066014    1.8884641988107809    -5.15231638916852
    C    7.105943808775597    2.5092658045796665    -1.9673037220067773
    H    8.000397014776011    2.5756846531590294    -1.360871547348111
    C    7.195916464908125    2.1315534510974405    -3.302020509177855
    H    8.17255656259499    2.071047934131051    -3.774180038848913
    O    -3.799676216762354    2.7477778061639238    0.302126584556375
    H    -4.707251915502798    2.823194638594396    -0.02240725980893888
74
    Energy:       unknown
    C    -7.092995383399956    -0.7789744240554913    -0.002251808311215657
    N    -6.341176764949882    -1.8727514645505132    -0.07623666558749083
    C    -8.442415300561471    -0.8270650450905594    0.3365038837564821
    H    -9.037009458505196    0.0814035165178837    0.30914953763255454
    C    -6.369698592169664    0.47403389883810687    -0.40444596527406057
    H    -6.0087670809199025    0.407201745828799    -1.4212026599290863
    H    -7.136672832147782    1.2466251653348115    -0.4384549256841055
    C    -6.935383870124559    -3.0533262873234563    0.11763535520855588
    H    -6.30778723814067    -3.9279018473869565    -0.03422558018326297
    C    -9.03491939843471    -2.0511283460840843    0.6199019498819041
    H    -10.105670891372576    -2.152939728301632    0.8003758194223158
    N    -5.3359673839300354    0.8890377575057771    0.4848526670452779
    H    -5.654188893389425    0.7372487686087343    1.443697060277171
    H    -4.4015708503997955    1.4331322291826534    1.183126134231355
    C    -8.273086234458333    -3.2054060490641527    0.4700091903276357
    H    -8.699577590587758    -4.175161914168654    0.7439650904430689
    C    -0.8307774841900647    0.4706981714046768    -0.7419334507973481
    H    -1.23728960140644    0.22430853238019113    -1.7197633650553268
    C    0.6348931070969182    0.9512610502223166    -0.8742679703889522
    H    1.1085381188699432    0.6171030273138852    -1.7924002192919974
    C    -1.5443540867018004    1.6727305327375233    -0.1623694545100681
    H    -1.4048334627397303    1.6760685231663741    0.9284662139872827
    O    -0.9857177251027363    -0.6458210472861053    0.12688325643970977
    C    0.5172664894494631    2.4806542636931876    -0.7534668968850081
    H    0.9614279751701404    2.776430318658302    0.19907410857894214
    O    1.3852299792046543    0.4548733017486129    0.23565427777101253
    O    -0.8775774604033578    2.7749811144259304    -0.7287986716489856
    C    -3.0270829781816575    1.7648459457924968    -0.523385082460926
    C    -0.4952509178025368    -1.8074898890699043    -0.3648564459146066
    C    1.109524948508109    3.3008855297243036    -1.8934265841241036
    H    1.2168471012604178    4.33990214401235    -1.58571590944241
    H    0.444355833155951    3.251236886790488    -2.7514467806434166
    C    2.6606751324074103    0.07040993328169125    0.003937646030353158
    O    -3.472663249214839    1.8051306517036048    -1.6446645965527509
    C    -0.26136722806485385    -2.851292057384165    0.6769795229867255
    O    -0.08538405037375747    -1.9029288836017093    -1.4972073968868742
    O    2.353661453880028    2.7986229073454627    -2.3825887266301473
    C    3.423694125745303    -0.12725838191340547    1.2665206362590602
    O    3.156280508416425    0.03487988226774949    -1.0906649953102845
    C    0.22438605098243522    -4.088724259267988    0.25653094369793517
    H    0.48675589613609416    -4.21186510285051    -0.7864074946627885
    C    -0.500058479245969    -2.620567608824282    2.029664155184036
    H    -0.8309405805212269    -1.6391677152546567    2.3492075659427174
    C    3.4028841457154884    2.91016517769391    -1.5496400894197118
    C    4.804875468503217    -0.2530327997445126    1.1670093174212717
    H    5.265828989798703    -0.1442389465162435    0.193657794432431
    C    2.801725377986648    -0.18264723172027414    2.5098865267029247
    H    1.7264589088541242    -0.07691724220129006    2.5758707452817027
    C    0.5793384254577312    -5.045894132190368    1.195570976930233
    H    1.098788797543731    -5.94625070156057    0.8886498509492408
    C    -0.3312529176564673    -3.6587547717362496    2.9384103674994226
    H    -0.5312212758905666    -3.487453872114929    3.988403048488405
    C    4.692343600497223    2.590400553742264    -2.214700269999904
    O    3.2975018519373394    3.3150925475844386    -0.4176265238132336
    C    5.560725459154981    -0.47986822259338613    2.3068119740203494
    H    6.637103818234987    -0.5677517443157587    2.2337386737856093
    C    3.565961798562042    -0.3766766155458518    3.650729781888368
    H    3.0853610328645424    -0.45384209955560023    4.617048957457815
    C    0.3332115118548174    -4.815330535273659    2.543733433112808
    H    0.6700110776563789    -5.52726869987738    3.2873804906274895
    C    4.754717635245515    2.192400943216608    -3.5445463055402513
    H    3.8516048655278183    2.162244809529199    -4.136826922278865
    C    5.853362690016455    2.690668768898082    -1.4570102131960585
    H    5.779637140849555    3.032929429005649    -0.43291589441158185
    C    4.950985980789096    -0.4372706204700347    3.5558784928287728
    H    5.550867009214277    -0.4906422716257084    4.45482581289578
    C    5.977451020742211    1.857538468296707    -4.105405527270983
    H    6.042576700308315    1.664497320790838    -5.170854822809233
    C    7.070782200993096    2.3341137651932318    -2.012982663907589
    H    7.9748598148320005    2.3966739780621444    -1.4206680957057776
    C    7.133420116039583    1.9178369419486994    -3.3377150476128183
    H    8.102432155160468    1.8053203619649123    -3.815885529885585
    O    -3.8732974378369898    3.0887158589900183    0.45084511994195703
    H    -4.782397615798887    3.1913058351174177    0.14637317265812622
74
    Energy:       unknown
    C    -6.684229616843107    -0.8557355379835558    -0.042638851243037415
    N    -5.850101912584881    -1.840323305255682    -0.3604418350917045
    C    -7.9697860265452585    -1.097275357823385    0.4332322199507931
    H    -8.644049660898697    -0.2636215805394464    0.605493766503169
    C    -6.139944904357052    0.5131557270414765    -0.3302794150346977
    H    -5.902041803934468    0.6298360370215348    -1.3783970075337721
    H    -6.969220628399718    1.1969427070640684    -0.15578597808401326
    C    -6.3124497517073035    -3.0920705643999673    -0.3138218719396843
    H    -5.627900047534071    -3.86248749547992    -0.6590113842607447
    C    -8.413742827091108    -2.4065808145336023    0.5692036644372989
    H    -9.435211528546473    -2.6474848914418154    0.8627366660164892
    N    -5.028160763704051    0.898978883296421    0.4735040167603633
    H    -5.174107784482521    0.5683789845873244    1.4274763034842932
    H    -4.351848347057909    1.8283778436231997    1.228343691124644
    C    -7.575271029260727    -3.437288858602481    0.15818825249579477
    H    -7.884280585600821    -4.478070723117563    0.2963546349265873
    C    -0.9500351571927763    0.6035630455105059    -0.6821595474487016
    H    -1.3798723445937797    0.37069147639836125    -1.6535017268844
    C    0.52992284771943    1.0270353713868865    -0.8344618774032497
    H    0.977084324830313    0.6731997683089627    -1.7586389334349581
    C    -1.611570429910635    1.8331598816297392    -0.09680540276878927
    H    -1.4647542195568506    1.8280233735398528    0.9930418737568938
    O    -1.1366963295118815    -0.5037714395790438    0.19254487050186336
    C    0.47359246011945766    2.5599554253045187    -0.7162273168693988
    H    0.9497852932464018    2.8416826921101888    0.22492429066159153
    O    1.2760309825098914    0.5040543110322634    0.26576899379934726
    O    -0.907004800150736    2.910134122120972    -0.6632498609543954
    C    -3.0900702434789333    1.975951876625368    -0.45191462490792217
    C    -0.7047538067481307    -1.6881327360448706    -0.3006875006436735
    C    1.0732749945851559    3.3497071943714425    -1.8739558014769144
    H    1.2257352717024415    4.38647164606836    -1.5778991641264448
    H    0.38963409890536943    3.3181531233673125    -2.718332491243977
    C    2.5298875939157597    0.0636098566300998    0.01596420583141867
    O    -3.5364057329049965    2.1927945236680575    -1.553371571455801
    C    -0.4763278749122076    -2.726852297497078    0.7474818751267945
    O    -0.31642242965037237    -1.804566075810242    -1.4384686811800445
    O    2.2875742205170675    2.7957897206747746    -2.382985069314689
    C    3.3091317912289844    -0.1441348964053867    1.2669106931055159
    O    3.0035704461886095    -0.003362596017505962    -1.086815271438294
    C    -0.04930284437854501    -3.9862902793184016    0.3293703155863985
    H    0.1871594880734592    -4.129686690260554    -0.7170659245103129
    C    -0.6718449440068539    -2.4732141812365063    2.102986600743064
    H    -0.9571098230737239    -1.4766703220629949    2.419552358216966
    C    3.354659838486598    2.866253823063289    -1.5683779408497966
    C    4.680444136707295    -0.33714022695616414    1.1436581240827834
    H    5.127512640374869    -0.2623603631172868    0.1606791196234958
    C    2.7082395539775175    -0.15874033449841318    2.5217460979786934
    H    1.6398260771549602    -0.006587390657543432    2.6050618717829526
    C    0.2685181100828761    -4.955260969460686    1.2692766162739983
    H    0.7324393184843414    -5.884743202251158    0.9602679622876933
    C    -0.5352872865382213    -3.5105971288006703    3.0177490471569195
    H    -0.7065166538227765    -3.322201735243647    4.069789297879877
    C    4.617397965293275    2.4851997548054423    -2.25225009770391
    O    3.2863093793574967    3.2844983392853266    -0.4383551247417287
    C    5.446851466464315    -0.5815491399032234    2.2726970225624394
    H    6.516505939506412    -0.7193206357949904    2.181370158602945
    C    3.4845961113719164    -0.3682874626249379    3.651502114412132
    H    3.0191679680415198    -0.4117945623231743    4.627307480947315
    C    0.06203460622589643    -4.702075454568053    2.620025838298555
    H    0.3647779946267832    -5.430137628534656    3.3625226763792146
    C    4.638807004036438    2.0587935008015323    -3.5745915765727783
    H    3.724769603264482    2.055812624894074    -4.1507049017556215
    C    5.796899787003961    2.5627794898484377    -1.5210177270589842
    H    5.756258284735579    2.931367222291711    -0.5042789527020917
    C    4.862785216230613    -0.498325849129725    3.531880174635544
    H    5.475806164791579    -0.5726126384075029    4.420375138857175
    C    5.835820657426541    1.6595708531647897    -4.148661405619259
    H    5.871395889571525    1.4288961493942005    -5.20780602431737
    C    6.987842412507368    2.1426809425059505    -2.089595071199227
    H    7.905295804855841    2.185304561352336    -1.5165455837486823
    C    7.007666833304233    1.6905084124459326    -3.4037405530008784
    H    7.961024065524024    1.512297138749307    -3.8926002784041085
    O    -4.000011347230262    3.376204187885143    0.6608406085873297
    H    -4.889703156740835    3.5295407738126725    0.32561370354570923
74
    Energy:       unknown
    C    -6.247357133701058    -0.9519603911763641    -0.11077902223656838
    N    -5.370217527555501    -1.798945654439885    -0.639766757584207
    C    -7.440748001601441    -1.3808307102822421    0.4620083643937428
    H    -8.156745125857647    -0.6485227352581083    0.8221284733668746
    C    -5.884405891351442    0.4933191472641265    -0.28902446330495085
    H    -5.787688601899417    0.7615681131982172    -1.332525909182735
    H    -6.737926151050632    1.0637818155167578    0.07400602766485258
    C    -5.711946409883617    -3.086243734818471    -0.7205148854797175
    H    -5.007444590697034    -3.7335210740767817    -1.2356132054302762
    C    -7.7485541393779    -2.7352121647155037    0.4605458650308084
    H    -8.70212857426563    -3.1113337202628584    0.8270304166710573
    N    -4.704489580136501    0.8927641493471045    0.40475267885530664
    H    -4.649606765098446    0.45252396391370764    1.3202117428515707
    H    -4.447383999618044    2.1089095003599834    1.223352582514849
    C    -6.877471747519045    -3.6135581757129627    -0.17395409528035247
    H    -7.096375901026365    -4.68525595818403    -0.18776194655751036
    C    -1.0297043011824716    0.7510621120009825    -0.5971411317755815
    H    -1.4876858790124865    0.5168558973034447    -1.5555361508505314
    C    0.45269548286321615    1.143016406155107    -0.7858780125017376
    H    0.8702673038900429    0.7707503153034706    -1.7167851882641618
    C    -1.6562687846254394    1.9997277159894786    -0.009213108884280504
    H    -1.4916947966559524    1.998057911120974    1.0780993694640344
    O    -1.2171793698535207    -0.342539397001858    0.2947899816606321
    C    0.42899147524145914    2.6777666976767036    -0.6826047227499502
    H    0.9391332460922568    2.9600904652047    0.2403150535589911
    O    1.211716348848593    0.6161502273528998    0.3033189218046002
    O    -0.9417340111362222    3.0582390849840566    -0.5947249051904211
    C    -3.1371100715743356    2.154459611667438    -0.33925295484197177
    C    -0.836621207374751    -1.5447670485981955    -0.19669509916064376
    C    1.0128988381955952    3.4378945626668482    -1.8680379075799312
    H    1.200705984688835    4.474241291260449    -1.591188501058848
    H    0.30346194239853064    3.411041814439622    -2.6912627757010643
    C    2.43890944762898    0.12096025179808668    0.026781405371663812
    O    -3.6006647413303927    2.549231883640922    -1.3838738885124373
    C    -0.6605429613162126    -2.5901131140276643    0.8541094700479992
    O    -0.468172522258522    -1.6845117796496518    -1.3377626877382187
    O    2.1985021800220954    2.8474948101067126    -2.4047503769216543
    C    3.222936473225132    -0.1532853299054253    1.261449481956897
    O    2.8822103347558037    0.0212235101322381    -1.0859878500168492
    C    -0.31685900104019427    -3.875064144056143    0.43826461999381605
    H    -0.11062038986059064    -4.041144815281809    -0.6110573807231654
    C    -0.8261430877037698    -2.3184267675073644    2.209949565627905
    H    -1.0527176281017359    -1.306301957411513    2.5238464553159057
    C    3.2860148254628463    2.8850647965332867    -1.615370783085791
    C    4.575858130376586    -0.43595774247678626    1.1123488581989363
    H    5.005844331001333    -0.40217582111053124    0.11955575879867641
    C    2.641852495906378    -0.1481841067336256    2.5256578566090044
    H    1.584932859331462    0.06130431352821563    2.627476120187353
    C    -0.07092449832928502    -4.863501765236576    1.3789494249846026
    H    0.3152094241831702    -5.827581719834993    1.0693718921081652
    C    -0.7436209790675797    -3.3561815667945423    3.1300386010116794
    H    -0.887277456960142    -3.151187032188895    4.182985821351123
    C    4.509201794612526    2.403045950828214    -2.307436062117077
    O    3.2615494398305733    3.3237459575882844    -0.4913339346846285
    C    5.346524415182864    -0.7268510029645848    2.2272237900521152
    H    6.404020708058208    -0.9286308337760577    2.1165140333078263
    C    3.425784958938399    -0.39778030479301807    3.6418389631416637
    H    2.9776014539199487    -0.4062022710235242    4.626649864661797
    C    -0.24297057600150274    -4.590494270168409    2.730585248423061
    H    0.000526485060310323    -5.340716510948907    3.472612354388998
    C    4.479542047360769    1.9308099697269292    -3.613963898890896
    H    3.5538564535024646    1.9545603097054791    -4.170740094540359
    C    5.702412928471292    2.421201336423929    -1.5949047993404846
    H    5.700827606475346    2.814837308788685    -0.5868350298593321
    C    4.789791865806672    -0.6179962153398766    3.4966064283622034
    H    5.4120532213648005    -0.7365580730025746    4.373794438102121
    C    5.640685319834206    1.446478251017752    -4.1960534907477856
    H    5.640758580113019    1.1700047737658856    -5.244430003041246
    C    6.856685567810225    1.9185913155664878    -2.171789694516017
    H    7.784580152273698    1.9198814988217783    -1.6143555545144341
    C    6.825072486223176    1.4263300940181114    -3.4710499706074716
    H    7.7551096164994995    1.163647397109867    -3.965645525889975
    O    -4.225449113202903    3.5747273780704862    0.9611269131394562
    H    -5.064274708222559    3.8361759988623105    0.5673049263829755
74
    Energy:       unknown
    C    -5.818369580430671    -1.0171101281334298    -0.2181897270189649
    N    -4.9210090590076225    -1.7096345593002433    -0.91366389605522
    C    -6.903958079104423    -1.6221184857676343    0.4062928782297666
    H    -7.631585047199246    -1.0107046267608464    0.9300567991245923
    C    -5.628224874126489    0.47109469149080474    -0.2686330119815927
    H    -5.665409676237237    0.8667682778295674    -1.2759127185158383
    H    -6.478600352065503    0.911951975312976    0.250180688183359
    C    -5.150493148986736    -3.0076877931240515    -1.1139587219409994
    H    -4.442989923822345    -3.5225456026259905    -1.75752182479981
    C    -7.091238955123175    -2.9905775270587553    0.2642414837565932
    H    -7.958494834257526    -3.4948159479013543    0.683234215046016
    N    -4.41352092602827    0.9157820536052554    0.33816468273098843
    H    -4.175980369591189    0.4071403940869363    1.1830539818681423
    H    -4.677906458088377    2.334940736835488    1.122214324164773
    C    -6.211343073877129    -3.7014899096113565    -0.5420133435194084
    H    -6.341791491425151    -4.77635785602118    -0.6837008349941759
    C    -1.0650179587003317    0.8762700221842269    -0.4857040240288816
    H    -1.5496918029233775    0.6261956601299307    -1.4273272361235056
    C    0.40860585564416807    1.2659557587206247    -0.7194999163046426
    H    0.7963077169437531    0.8799777038511669    -1.6578762381499679
    C    -1.6825853222167686    2.134030763311734    0.09898962784666726
    H    -1.4992866410808516    2.1454544636671016    1.1832834314643366
    O    -1.224216348544485    -0.20275163911890248    0.42933456082607163
    C    0.3850461987485271    2.801840274628508    -0.637553417225598
    H    0.9271450725847684    3.0976889102982095    0.2625695040554006
    O    1.1971430276361497    0.7543732879534892    0.3556427166085514
    O    -0.9825798965245218    3.184819217963804    -0.5143026456232271
    C    -3.1704258028529915    2.264426564990508    -0.19999937076395852
    C    -0.8809310746406976    -1.417019222974351    -0.05809184580837446
    C    0.9348164537046045    3.5389202324242497    -1.853528020496576
    H    1.1531480798018703    4.574252764522401    -1.595297159345577
    H    0.19298994889690163    3.5134686438275167    -2.648095660708599
    C    2.3962050764486764    0.21290598245841805    0.04683852603762098
    O    -3.662236536378873    2.82167921290784    -1.1555505538709203
    C    -0.7867759809883897    -2.4719827591785517    0.9919873396714833
    O    -0.5303713076836278    -1.578619256190328    -1.2008630036452452
    O    2.0902184460588105    2.925064142788189    -2.430517237458899
    C    3.178739481346844    -0.14531688365120782    1.2602809032746007
    O    2.7938155557035005    0.0651027753310492    -1.0777374876579442
    C    -0.5396651735360991    -3.7784543442551906    0.5765229190319932
    H    -0.3680474891747443    -3.9644194413330514    -0.4755393024331636
    C    -0.9323740479680964    -2.1875577178633727    2.347211789376765
    H    -1.090279218999114    -1.1626498722076244    2.6603554998124097
    C    3.2014698828269577    2.9254548518206662    -1.6740070713349042
    C    4.5027408852107556    -0.5278865999848721    1.0788061292549376
    H    4.905424599059648    -0.5417201709792158    0.07418314916420729
    C    2.6195531595778694    -0.13360675249406848    2.534289814363898
    H    1.5789328912995728    0.1357262305837665    2.658676433613126
    C    -0.38823716975899786    -4.785834338777664    1.5164490096364336
    H    -0.09335519083216105    -5.781058670258006    1.2058881702194382
    C    -0.9171162482858872    -3.2248821549045856    3.27034006966613
    H    -1.033538783664763    -3.0069037673831107    4.323928385185683
    C    4.3679604820543    2.324881581484881    -2.3714994361106014
    O    3.228607196554765    3.377936947809656    -0.5555274137037133
    C    5.275758459879883    -0.8772068454859978    2.174824710506029
    H    6.314659972858149    -1.1484514853013907    2.0401949516007756
    C    3.4100507539921767    -0.43607264129990864    3.6325186756081274
    H    2.9866217543466185    -0.40754185875554666    4.6279179277257105
    C    -0.5343865302914632    -4.499350625030418    2.8681841737713683
    H    -0.3683725477156128    -5.271583404038997    3.608809870822903
    C    4.272936055193315    1.805532648809819    -3.6569042403285703
    H    3.332526222436601    1.856092958545051    -4.1866297561413965
    C    5.570819082958583    2.2643944067990063    -1.677844937984893
    H    5.614987655053166    2.6726384665805547    -0.676656799839177
    C    4.7504532206184304    -0.754854985797944    3.456021355502664
    H    5.380549343681217    -0.9262727534259543    4.318789780212828
    C    5.386109872456571    1.2300154058998594    -4.249457358668898
    H    5.339272115218628    0.9063901701096613    -5.282722660676456
    C    6.676462252748586    1.6730704166802015    -2.26546065920555
    H    7.614238531367649    1.62504081340364    -1.7271631958279552
    C    6.581508413543035    1.1461373350520516    -3.5477216876673414
    H    7.476466687770444    0.7902431472289845    -4.047359802783355
    O    -4.642471777714906    3.6724342400827115    1.2464097512641779
    H    -5.389411704377606    4.0889464949846    0.8033439895153268
74
    Energy:       unknown
    C    -5.403238099634402    -1.0004025482174606    -0.2005511642648161
    N    -4.48398347975014    -1.498441037018995    -1.0246522168664018
    C    -6.352310103675581    -1.7978702130671875    0.4285347397968284
    H    -7.0813752327470825    -1.3462508364487307    1.0923960526967547
    C    -5.4163828110952625    0.49853131875906903    -0.09820143326738884
    H    -5.601476483488761    0.9958647098398442    -1.0438000162272139
    H    -6.247309202717904    0.7746819000183156    0.5508863478004832
    C    -4.576926806048064    -2.785315501771387    -1.3568601871130497
    H    -3.859114678833888    -3.139747652956377    -2.0904145724888012
    C    -6.396497108273086    -3.153230048412167    0.13290138702156404
    H    -7.1515041347748936    -3.8002022137729057    0.5686605633494771
    N    -4.201146352185296    1.0353260227839818    0.4430814478289963
    H    -3.7913628989142487    0.4784108188713311    1.1825048900176456
    H    -4.973476506748609    2.693950923920047    0.8512166447469196
    C    -5.511381038544022    -3.6571030873373975    -0.8097000589767424
    H    -5.530156249813866    -4.712439644523009    -1.0775962177039213
    C    -1.1035034291434351    0.9321801557046256    -0.4294106219448724
    H    -1.6111088984446211    0.6737345320632514    -1.3571728932696034
    C    0.3621417508612153    1.3185071347730046    -0.6969329888794795
    H    0.7302975369130801    0.9184907519631818    -1.6374187793643444
    C    -1.7084601042588998    2.1989259058892863    0.15758198806892165
    H    -1.4975302867230924    2.2230991636160633    1.2368186375588646
    O    -1.2441141491316388    -0.1371697330355272    0.4996229266142937
    C    0.33680245667108705    2.8556674213424156    -0.6387031442612308
    H    0.9010241097278748    3.166253459085997    0.24258851707948387
    O    1.1696475587112485    0.8227599911095366    0.37138966020591235
    O    -1.0297174374010711    3.2391229523403746    -0.49377163939386703
    C    -3.2054290204456266    2.3061750416082325    -0.09251623914626815
    C    -0.9305355153056861    -1.3601760130883067    0.016246078914073443
    C    0.8602825521027319    3.5671838254064077    -1.8810144955389292
    H    1.0905949269934387    4.606124307780351    -1.6481227251194601
    H    0.09882917323703566    3.5279603328045632    -2.6566498949080404
    C    2.3494514090101752    0.2500942658094355    0.04746584306213513
    O    -3.7324995280159383    2.972404076967887    -0.9571120177038667
    C    -0.9049498045929968    -2.4169406760770706    1.066519551610327
    O    -0.5951408225411781    -1.538176657852713    -1.127511932865816
    O    2.001381763832837    2.937545870043173    -2.4718221460895298
    C    3.1189513337989396    -0.16602403565118656    1.25037248962207
    O    2.7188772377115233    0.07130897953552694    -1.0823503175664364
    C    -0.7163598435130786    -3.7336008345099643    0.6546677116039039
    H    -0.5620253095674651    -3.9324726939978283    -0.3975898620830665
    C    -1.0434249760346284    -2.1226288849381607    2.4200024025486355
    H    -1.155427910326168    -1.0918818488783235    2.731810779807797
    C    3.12550725264957    2.9311982587130245    -1.7344260856099
    C    4.421152708434196    -0.6110138674220565    1.0545463171009055
    H    4.808236122847627    -0.6544381635487482    0.04467602686667435
    C    2.569697938469772    -0.1414447103627576    2.528501870648904
    H    1.5409504188414134    0.16547118577798087    2.661971802990373
    C    -0.6542042440485976    -4.74978094164467    1.5946041908184598
    H    -0.42973009780843685    -5.763235638920599    1.285329783089017
    C    -1.0812123980859931    -3.1552963298522934    3.346500458842183
    H    -1.1869100622545503    -2.9287819123082266    4.3992961094222816
    C    4.258584826782268    2.2592737240091205    -2.4223408428991933
    O    3.1788351953918563    3.4026321756377342    -0.6247224052490545
    C    5.184220595768821    -1.0082745606821528    2.1407671925913396
    H    6.209035187231941    -1.3236576709247658    1.9957334632788426
    C    3.3510421980695204    -0.49748368152288935    3.6170514969402205
    H    2.9406518119684835    -0.4463366544466489    4.617087063704015
    C    -0.7940263652961612    -4.454168599842629    2.944805011707356
    H    -0.7079092805244132    -5.240343313956926    3.6841695299361588
    C    4.13198106256057    1.709440366894812    -3.6923135354272447
    H    3.1925832066341093    1.7911925689692187    -4.219997085951707
    C    5.457753297844648    2.150726940053711    -1.7281840721825552
    H    5.524415268010162    2.5778584968307006    -0.7362776994448057
    C    4.671091850969355    -0.8845636440866151    3.4263977634102707
    H    5.2937553117372405    -1.1112006463434927    4.281853423979808
    C    5.217840807330896    1.0785372149253305    -4.278985109883627
    H    5.145346235902058    0.7138044434270802    -5.296403676072607
    C    6.5359145177352405    1.5059874591076094    -2.310366194146062
    H    7.472354090197347    1.4256393318965208    -1.7738409064951723
    C    6.4097789916329075    0.9516305409018919    -3.5780714210062703
    H    7.280265471224549    0.5278620523665699    -4.06630515603219
    O    -5.2807959000038736    3.762026212365807    1.3050193478326946
    H    -5.90661960709307    4.342509663507155    0.8585302423289481
74
    Energy:       unknown
    C    -5.100974771898002    -0.8928462010270503    -0.08349133192689398
    N    -4.196997918702046    -1.1823261317079785    -1.0195767146793595
    C    -5.899954815931413    -1.8619546174287525    0.5097280423717874
    H    -6.6022254293393585    -1.5822488891194628    1.2862027995270375
    C    -5.2715696685890965    0.5704538582667208    0.2282729951870393
    H    -5.623132956170932    1.140944509140332    -0.6268168478068891
    H    -6.028751090200574    0.6827815085430968    1.0042649010982865
    C    -4.150696711703823    -2.431943005470595    -1.4757260551408704
    H    -3.4432796602659668    -2.621180172120774    -2.276691003867314
    C    -5.808752300471596    -3.1719782661901643    0.06279106799972478
    H    -6.435517941147051    -3.947533297314146    0.4875776277604739
    N    -4.040513676145448    1.1756830923256232    0.6741938925591707
    H    -3.4857698123334475    0.5921739528735419    1.2855428472067294
    H    -5.2340688282545536    3.100765327292962    0.48228374678987446
    C    -4.932620866269484    -3.463776194817192    -0.9705451715297023
    H    -4.846084487329766    -4.473299651457036    -1.360003583630265
    C    -1.1499288056076664    0.8952109339854755    -0.41849281547315836
    H    -1.6680863455366075    0.6338768277584715    -1.3402400848514293
    C    0.3106649567896697    1.2767366199542363    -0.7034365402597805
    H    0.6727468971889837    0.8611110525994687    -1.6395705298390157
    C    -1.738368863951203    2.173449427353661    0.1698619494874158
    H    -1.4990543844256152    2.2136105199966836    1.2429333649195602
    O    -1.2917548475890055    -0.1663606463782008    0.5181918217673183
    C    0.2836552480517588    2.8152067256361244    -0.6740957181051875
    H    0.8589542918969408    3.1429630557796755    0.1936101156827775
    O    1.1209450419984837    0.7979715817572129    0.3704536882601037
    O    -1.0840487006975428    3.1993971608338665    -0.524501660515495
    C    -3.2428011091855233    2.2510874571499384    -0.03510936047407425
    C    -0.9966529506195608    -1.3964552239281136    0.043604217296818217
    C    0.789944619970453    3.4982986789639274    -1.9388682509096555
    H    1.0149499620988613    4.545069183789726    -1.7368553910656435
    H    0.021062249925252952    3.4314064265119373    -2.705695847297382
    C    2.291104416663175    0.20490753726100208    0.050862839329519086
    O    -3.790090900665346    2.9383406117647937    -0.8722277258812822
    C    -1.0270584867863848    -2.446162150577288    1.0987946735686982
    O    -0.6558389043590228    -1.5880109869381802    -1.0951941985818974
    O    1.9332573621964628    2.8594742716544723    -2.517939753339816
    C    3.067394724897139    -0.18159351825363984    1.258886350515849
    O    2.659190644479779    0.014822428631411429    -1.0776845708267444
    C    -0.8499419831619961    -3.7678206239709526    0.7001821966717151
    H    -0.7004072709541954    -3.980228421778553    -0.3500436469392204
    C    -1.1716693586936235    -2.1377076948090212    2.4480232667234394
    H    -1.2540813380846774    -1.1031510178855803    2.753955917912928
    C    3.0604631338719694    2.8766185473974772    -1.7851552836226237
    C    4.36236784011852    -0.6474562122708207    1.064424352900035
    H    4.755595372773208    -0.6817416685762252    0.056607384329840985
    C    2.5137834980067004    -0.15458963379498988    2.53511414569443
    H    1.4918318943876483    0.17380412716705718    2.6672135210717087
    C    -0.8634713200981079    -4.781581350196338    1.643982089035417
    H    -0.7030931007468781    -5.808073301291118    1.3395247698434771
    C    -1.2181294012437502    -3.158199147120462    3.3860181302140413
    H    -1.3344592056033098    -2.9213926850489753    4.435256894186591
    C    4.208722524622588    2.2414830218783077    -2.483186273014157
    O    3.1158961564989807    3.3745792764832303    -0.6872173971353073
    C    5.111320828564286    -1.07310608621203    2.149094459522402
    H    6.128415907036944    -1.412257312479148    2.004625005917408
    C    3.276665938797324    -0.5541808147045082    3.621464524541221
    H    2.8572685096325188    -0.5201819740414637    4.6185939615596725
    C    -1.0170595409492662    -4.473964902346716    2.989640350946053
    H    -1.0080860804475273    -5.264002597019236    3.72966327017799
    C    4.096253608438821    1.711395889256634    -3.762862932323945
    H    3.161473570099375    1.7979258108175744    -4.298017949352322
    C    5.404467138604482    2.13466079911997    -1.7829872737739005
    H    5.4668619995861585    2.5688670408653675    -0.7940070393117659
    C    4.581187441859786    -0.9894189396344399    3.430507285845683
    H    5.186770134405785    -1.263260940499677    4.2845034850744055
    C    5.179978310236583    1.0648145826013689    -4.335998931321518
    H    5.100406895126386    0.662083030091039    -5.337831291493733
    C    6.483388933203845    1.4830407051002288    -2.3557139237501796
    H    7.415606141672248    1.400133545433498    -1.8125426785373717
    C    6.365201423052833    0.9319554485107553    -3.6252664920559208
    H    7.220076473466646    0.4509153852689597    -4.085241620685173
    O    -5.865713573403353    3.737039703419649    1.081055637638606
    H    -6.3371666826578466    4.474924613173353    0.6813282981837423
74
    Energy:       unknown
    C    -4.873014674817182    -0.78247242066395    0.043882591258953815
    N    -4.0359151488048655    -0.8676553539325684    -0.9933454917463446
    C    -5.514872300923659    -1.8905524549686816    0.5782060191884552
    H    -6.158269571865177    -1.7818703011558654    1.4421569646330454
    C    -5.082694850802754    0.5998692494444956    0.6205023042525059
    H    -5.584282673845471    1.2357284746187331    -0.1072249229662353
    H    -5.712798464725602    0.5583847573601003    1.5082945568190136
    C    -3.849448481625772    -2.058982625960352    -1.5530002984417284
    H    -3.167857552338066    -2.087510494239999    -2.3962822804436383
    C    -5.305545966279449    -3.130226472436823    -0.00657900825034884
    H    -5.789901441012654    -4.011331800796887    0.39339054126022516
    N    -3.8008808286570983    1.206930843983414    0.9309459381019509
    H    -3.145458893785716    0.5969261119769776    1.3967086829791306
    H    -5.464952705137514    3.4774643227348165    0.15401432319332878
    C    -4.468499629098822    -3.2188593195085935    -1.105097191810095
    H    -4.288969205403038    -4.161559914147677    -1.6046096996297783
    C    -1.14582837524463    0.840361044525354    -0.4056184482412329
    H    -1.6886691899556228    0.572622216320996    -1.3116041204638391
    C    0.2981821248573394    1.242630985548208    -0.731163450392452
    H    0.6601310278418887    0.806379378768303    -1.6578197041972396
    C    -1.7214680270775709    2.120381514204957    0.20298852608989304
    H    -1.4105950215015584    2.186551388573042    1.2567185081211891
    O    -1.2489300308376536    -0.21655368592212956    0.5398667439285023
    C    0.23260960525058372    2.7811474948670747    -0.7486067294165692
    H    0.8239231714437116    3.150202649035198    0.09125045539415168
    O    1.1275040743086508    0.8162600412054324    0.3502187158936407
    O    -1.1420638957423483    3.135165458069236    -0.5680918480301992
    C    -3.2377128945627174    2.136270091130223    0.11702587477473107
    C    -0.963291840513294    -1.4488980316645705    0.06905438137752672
    C    0.6829242097512807    3.4276535451093304    -2.052377871422017
    H    0.8658065582993648    4.49172228210328    -1.9039319610192735
    H    -0.09759365344720923    3.2918683690297095    -2.7984786263062067
    C    2.2947188359704738    0.21391375680933483    0.04207219142027804
    O    -3.85758420942087    2.871556718054516    -0.6260873052760838
    C    -1.1050999768047218    -2.5007068560561505    1.1106600589695146
    O    -0.6327283889470671    -1.64930078417347    -1.0698151457986829
    O    1.8474681581409125    2.8112315388016604    -2.616707523731049
    C    3.036837924555819    -0.20389716029664956    1.2604651804616835
    O    2.684204377134524    0.04523121800624223    -1.082729402663843
    C    -0.991021356608993    -3.827622766423501    0.7089315798039034
    H    -0.8095123443589642    -4.043217265572821    -0.3355385496792496
    C    -1.3232655578257826    -2.192221944691267    2.449511787170521
    H    -1.393017401461861    -1.1584673579301212    2.7585730033587317
    C    2.9805613584406423    2.9071452187061846    -1.8987417640117472
    C    4.341446931529086    -0.6517149771112515    1.090845836646518
    H    4.75685020517592    -0.6720506323527233    0.09163055496109526
    C    2.46372815427953    -0.16552252557081565    2.5277488256317193
    H    1.4469795888891388    0.18313711144517045    2.6444927282479247
    C    -1.1034428870714148    -4.842897116592763    1.643921596744196
    H    -1.015113062102242    -5.876081954563141    1.334606940016707
    C    -1.4314394499758956    -3.2108943664912704    3.3829883013108724
    H    -1.5946644590643415    -2.9722955239280293    4.425432237169938
    C    4.136169774985331    2.2391410453733482    -2.552767167362858
    O    3.0284493996877764    3.462029670598433    -0.8280261541752972
    C    5.077678901934578    -1.056053170806321    2.1916787606283923
    H    6.095216932176062    -1.4002998687997177    2.0648376990206865
    C    3.201448278720761    -0.5796046605365796    3.6258013141568033
    H    2.7593288529206927    -0.5565271701605918    4.613495344668622
    C    -1.322352465445719    -4.534794849534812    2.9800511897579405
    H    -1.4002952277994465    -5.328281420545959    3.7120698333312125
    C    4.044086790109443    1.666244350072055    -3.815459139915628
    H    3.1179990725778373    1.7354801646557323    -4.3680381473429595
    C    5.321188144218411    2.159476013081378    -1.8311750402847984
    H    5.36417317999764    2.619810707731909    -0.8531708356351675
    C    4.5067680736313    -1.020510413557009    3.457220238896463
    H    5.081662671211286    -1.3376424041967263    4.317501978745389
    C    5.136766539516068    1.000243598452948    -4.347704753263888
    H    5.06880596654638    0.5497638925908156    -5.329220629777036
    C    6.408909450101966    1.488582484408474    -2.3631667113215653
    H    7.329854973528487    1.4203069614192394    -1.799398608989843
    C    6.314098226063043    0.9025667984228718    -3.61863656300369
    H    7.161775640869335    0.3705075493241551    -4.031307661350556
    O    -6.243571209344067    3.625536812325122    0.7184737547825405
    H    -6.575633860428399    4.490652236401316    0.46328669319324467
