74
    Energy:       unknown
    C    -8.686898648648652    -0.11759729729729813    -0.1866959459459458
    N    -8.975498648648653    -0.6415972972972962    1.006704054054054
    C    -9.630098648648653    0.5532027027027039    -0.9551959459459459
    H    -9.348998648648653    0.9806027027027039    -1.909595945945946
    C    -7.251898648648648    -0.27479729729729885    -0.6357959459459459
    H    -7.028598648648648    -1.3352972972972972    -0.7599959459459459
    H    -7.1031986486486485    0.20160270270270172    -1.604495945945946
    C    -10.219398648648653    -0.5243972972972961    1.457904054054054
    H    -10.418498648648653    -0.9618972972972961    2.429804054054054
    C    -10.926498648648652    0.6656027027027038    -0.4765959459459458
    H    -11.681898648648653    1.1792027027027028    -1.0571959459459461
    N    -6.288098648648648    0.2781027027027012    0.3222040540540542
    H    -6.490998648648648    1.2628027027027027    0.4693040540540542
    H    -6.440898648648648    -0.17479729729729826    1.219204054054054
    C    -11.232798648648652    0.11100270270270186    0.753804054054054
    H    -12.232098648648652    0.16440270270270174    1.162604054054054
    C    -0.1839986486486487    -0.6063972972972962    -0.6082959459459459
    H    -0.49999864864865085    -0.9633972972972962    -1.586695945945946
    C    1.0154013513513493    0.3547027027027012    -0.7541959459459459
    H    1.5424013513513493    0.21620270270270173    -1.693095945945946
    C    -1.2630986486486508    0.2650027027027012    0.008204054054053576
    H    -1.1431986486486507    0.30710270270270124    1.099604054054054
    O    0.08860135135135135    -1.7167972972972974    0.23700405405405423
    C    0.37420135135134913    1.7435027027027028    -0.5865959459459459
    H    0.69630135135135    2.136502702702703    0.3800040540540542
    O    1.9226013513513494    0.12330270270270187    0.3279040540540542
    O    -1.0394986486486508    1.5357027027027028    -0.5769959459459459
    C    -2.6884986486486473    -0.16809729729729828    -0.30839594594594577
    C    0.93930135135135    -2.618097297297297    -0.2949959459459458
    C    0.6364013513513499    2.7640027027027028    -1.686595945945946
    H    0.42180135135134916    3.764502702702703    -1.312095945945946
    H    -0.011198648648648836    2.546602702702703    -2.532795945945946
    C    3.242101351351353    0.19240270270270174    0.05430405405405339
    O    -2.9550986486486472    -1.1256972972972972    -0.9899959459459459
    C    1.3206013513513493    -3.699497297297297    0.6542040540540541
    O    1.3539013513513491    -2.5324972972972972    -1.4221959459459461
    O    1.9614013513513493    2.7318027027027028    -2.220995945945946
    C    4.077201351351352    0.03880270270270172    1.276304054054054
    O    3.6882013513513527    0.3781027027027012    -1.0470959459459461
    C    2.0636013513513527    -4.760397297297297    0.14530405405405422
    H    2.302501351351353    -4.768797297297297    -0.909595945945946
    C    1.0014013513513493    -3.653897297297297    2.007204054054054
    H    0.42300135135134914    -2.8245972972972972    2.3914040540540538
    C    2.944801351351353    3.143402702702703    -1.402195945945946
    C    5.430401351351352    0.3385027027027012    1.158104054054054
    H    5.809001351351352    0.6526027027027038    0.19400405405405424
    C    3.550701351351353    -0.36429729729729876    2.499304054054054
    H    2.496401351351353    -0.5921972972972962    2.582204054054054
    C    2.488801351351353    -5.773897297297297    0.9870040540540541
    H    3.068801351351353    -6.598797297297297    0.5933040540540541
    C    1.4379013513513492    -4.665897297297297    2.848904054054054
    H    1.2033013513513493    -4.624697297297297    3.904604054054054
    C    4.263901351351352    3.208502702702703    -2.083595945945946
    O    2.754801351351353    3.434902702702703    -0.24679594594594578
    C    6.258201351351352    0.24190270270270173    2.264004054054054
    H    7.309401351351352    0.4858027027027012    2.177104054054054
    C    4.385701351351352    -0.47119729729729876    3.601304054054054
    H    3.982501351351353    -0.7885972972972961    4.554504054054054
    C    2.1800013513513528    -5.7236972972972975    2.340304054054054
    H    2.5215013513513527    -6.508297297297297    3.003404054054054
    C    4.394101351351352    2.958302702702703    -3.444195945945946
    H    3.5211013513513527    2.697602702702703    -4.024795945945946
    C    5.380201351351352    3.5304027027027027    -1.3193959459459461
    H    5.251801351351352    3.713402702702703    -0.2603959459459458
    C    5.735401351351352    -0.16529729729729828    3.484804054054054
    H    6.382001351351352    -0.24469729729729828    4.349804054054054
    C    5.641801351351352    3.037002702702703    -4.041795945945946
    H    5.743801351351352    2.845102702702703    -5.102095945945946
    C    6.627401351351352    3.6030027027027027    -1.918695945945946
    H    7.499301351351352    3.851902702702703    -1.326695945945946
    C    6.757101351351352    3.357602702702703    -3.280195945945946
    H    7.731101351351352    3.417602702702703    -3.749295945945946
    O    -3.568298648648647    0.6346027027027038    0.26720405405405423
    H    -4.512898648648648    0.34320270270270126    0.10350405405405415
74
    Energy:       unknown
    C    -8.618693590878431    -0.23659960363459806    -0.10209357226660283
    N    -8.726614460409833    -1.0018485651529543    0.9852513035762842
    C    -9.710029802171558    0.40202568920718396    -0.6795182864758793
    H    -9.575951978078853    1.0167500593259895    -1.5619508940059155
    C    -7.227014442385927    -0.13986533254377184    -0.6777023739795061
    H    -6.8858295413941635    -1.1207419658082252    -1.0033573639626563
    H    -7.258442855722764    0.4769511854483175    -1.575758279442764
    C    -9.937997264502805    -1.1637513062003286    1.5121947961565982
    H    -9.988919629534854    -1.8099992449653084    2.3825502429399577
    C    -10.96630479870378    0.234045054417908    -0.1159726451427865
    H    -11.843359103469771    0.673255338286246    -0.5808688944552028
    N    -6.256043678602248    0.43171091936379824    0.24203420843033238
    H    -6.5814142921935375    1.323884200654934    0.6046692064141291
    H    -6.143087451510534    -0.10565546090300296    1.1315052052084507
    C    -11.089911987223493    -0.5856405746417924    0.9947236477059176
    H    -12.051398365674004    -0.729417627408104    1.4764600753181327
    C    -0.2321944237410209    -0.41423419276774576    -0.6940293989879183
    H    -0.5463160172804602    -0.7613289198105146    -1.676184335412901
    C    1.0254599697620919    0.4749039985962509    -0.8234246508700528
    H    1.566239959848109    0.29813202050883003    -1.747916011419316
    C    -1.2689863375506583    0.524599993303155    -0.10791362266719498
    H    -1.1578314040760824    0.5745060508134201    0.9843519129575874
    O    -0.04362408652152979    -1.53136658814761    0.16539216455059744
    C    0.46245980170283846    1.9002469990126163    -0.6837374746246223
    H    0.7853189549790134    2.2864557411975652    0.28535080461570217
    O    1.8921978054202628    0.20445985430947025    0.28189401472792863
    O    -0.9601207720845072    1.7718366279621398    -0.699989328994936
    C    -2.7142550521313984    0.17191640513764853    -0.441087849272597
    C    0.7635180015931272    -2.486177021798896    -0.342939314888582
    C    0.8044826458570088    2.891762220103669    -1.7884540146641155
    H    0.6343479766702711    3.9069748721075412    -1.4316092078205482
    H    0.16803655369752935    2.6989377387988505    -2.648646886265906
    C    3.2199916114245095    0.191055391275576    0.03911163927189836
    O    -3.040186581655719    -0.6556153640398328    -1.254395359301227
    C    1.0799111714003724    -3.573425071504215    0.6249678474922409
    O    1.2035237608898484    -2.4351356849689467    -1.4638084191421226
    O    2.1372091555316204    2.7784810321068467    -2.290291335920763
    C    4.01566703280234    0.00248138069374443    1.2824099783723852
    O    3.7020233243865976    0.34160861235896156    -1.0523000045914586
    C    1.7953646097143023    -4.667741247731383    0.14588540225001373
    H    2.070734375591916    -4.689616679661031    -0.900211629867033
    C    0.7385195283363968    -3.496708348647829    1.9716150120496954
    H    0.19517197763643962    -2.6342018713737145    2.3348818619751457
    C    3.1213744359765814    3.144818727259541    -1.4511676290444653
    C    5.386830492229264    0.21934441300483895    1.1945730994323462
    H    5.806164295786387    0.5010381842047186    0.2372840100133888
    C    3.4356838235898324    -0.3450108356113517    2.4982738722214872
    H    2.3676734129214094    -0.5083174068741606    2.557434464545747
    C    2.2495962014161015    -5.635674998261202    1.0266646070865404
    H    2.8629752852528836    -6.45267405891006    0.6677014548789815
    C    1.1164750792109992    -4.516834542933766    2.833068069185277
    H    0.8564658265212151    -4.456793958364276    3.8820352458236904
    C    4.458036065067629    3.1261590160969526    -2.099910404988383
    O    2.919873980036058    3.4623210570532406    -0.3045830748136698
    C    6.179547621600628    0.09365909355007411    2.3234051588845435
    H    7.245387112829018    0.2723851284429706    2.2595600490603713
    C    4.233646022640955    -0.473425973329649    3.625191493868026
    H    3.7893404141652436    -0.7531223527617282    4.571748599299592
    C    1.9102411257597907    -5.5594361972565185    2.3715301145958594
    H    2.2736030050103078    -6.307622054858845    3.0649363647824144
    C    4.607763928398217    2.8517431911586537    -3.4537922778658907
    H    3.7363372519509555    2.6335786148451663    -4.053967321260059
    C    5.571206193532249    3.3896536327908806    -1.3094847010117263
    H    5.426346292341084    3.594969452157063    -0.25671477728858333
    C    5.597993105095298    -0.22548270713281585    3.544190021143053
    H    6.209536042468128    -0.2822554670148314    4.435825717992459
    C    5.871964698884781    2.8599315672650873    -4.021426465974107
    H    5.982532797761688    2.7125029289927576    -5.088799985643963
    C    6.83511065824651    3.3838477242007814    -1.8770875955103554
    H    7.704316009589205    3.5893688172202634    -1.264883234948091
    C    6.984203151044159    3.127325541036603    -3.2347430084936004
    H    7.9599820781597925    3.2239385837206194    -3.696940857573101
    O    -3.6011578581069026    1.0868241919950408    0.0999392327064843
    H    -4.534698849126151    0.9053299750330945    -0.18094841067465756
74
    Energy:       unknown
    C    -8.419938622453877    -0.38238155869018375    -0.017217132748639275
    N    -8.330499743207831    -1.3350068317443298    0.911173179552058
    C    -9.633429991040758    0.18035216798668827    -0.3980823574123242
    H    -9.660460404176888    0.9445343909726065    -1.1671796496463709
    C    -7.112570830965808    -0.023281356846744226    -0.6755525889594979
    H    -6.690661689157679    -0.879416245021042    -1.1943295665241602
    H    -7.327584553697392    0.6997349979269607    -1.462813093990372
    C    -9.464657538886017    -1.7707808281982378    1.4593408855563097
    H    -9.352960531655775    -2.573199931509755    2.18268329095852
    C    -10.80527629444905    -0.2599416001034717    0.20066845971660421
    H    -11.774884756426047    0.10896905127498509    -0.12584784673802973
    N    -6.143189741235478    0.5674673576531344    0.21766022115485034
    H    -6.561137868192349    1.311363987999423    0.7727565542030417
    H    -5.737168117652295    0.04836494112077425    1.0741782035195302
    C    -10.725113519566998    -1.2858611898769061    1.1320603098264241
    H    -11.621687602061662    -1.6380310153126352    1.6373641176596443
    C    -0.3153517077820942    -0.2014131460785592    -0.7660750598966004
    H    -0.6377740660550283    -0.535559579264395    -1.7496978266990204
    C    0.9976026493209867    0.6080247846624011    -0.884343442268694
    H    1.5435097409033993    0.3911329443007476    -1.7972068634428116
    C    -1.2973378352896001    0.8038846010650136    -0.19840368911662612
    H    -1.1819058996549079    0.8589331381111462    0.8934646541478323
    O    -0.20843733609748033    -1.3220106443240318    0.10303130315303938
    C    0.52050370055339    2.0664879323856344    -0.767182045060424
    H    0.852438912918409    2.4443771448527616    0.2021355364439561
    O    1.8278096049731827    0.2977262658376569    0.2379135637577302
    O    -0.9066575014681358    2.0221880078519683    -0.7987599327412286
    C    -2.762405985928914    0.5367614201645778    -0.5329408082343485
    C    0.5455581303233193    -2.329081046156406    -0.38789299007678885
    C    0.9395440688367126    3.022056843920927    -1.8770824619419801
    H    0.8199128124804475    4.0503358833488905    -1.5379810258409814
    H    0.31094737171734715    2.853997386105532    -2.747943153557461
    C    3.1568961191967984    0.20239866178400365    0.019424490377788112
    O    -3.136617283344142    -0.13770137411366473    -1.4595806441293595
    C    0.7968498428871518    -3.4204530975229326    0.5955592187099774
    O    1.000887838955971    -2.3145732705314352    -1.5045182914166966
    O    2.272486710009324    2.8242201307369323    -2.3509124430753188
    C    3.917813907338057    -0.023284599071178337    1.2782700383820231
    O    3.6659281333581917    0.3093562917150813    -1.0646653480805965
    C    1.4728802000315135    -4.550763134118793    0.14159362204027498
    H    1.7700359428398418    -4.593079338872427    -0.898097163037806
    C    0.43234399647540356    -3.316061515715938    1.934705200543682
    H    -0.0714068799095254    -2.4223692213992667    2.2805898074061988
    C    3.259529572431623    3.143308476026473    -1.4960203802240943
    C    5.300764038610073    0.11131115193721983    1.2149434941968054
    H    5.753852422558325    0.3573845939456374    0.26320191436882634
    C    3.295023778328499    -0.3133190983797197    2.4880442117471375
    H    2.21831912889981    -0.41467879569708127    2.5275195957641174
    C    1.9089849565080343    -5.503580701921205    1.0487109087597775
    H    2.53860209297657    -6.321103932228657    0.7195333454642328
    C    0.7475232538196109    -4.345495686213396    2.811376951527934
    H    0.4698147637301326    -4.263981091413383    3.854426110853829
    C    4.605961901218897    3.034845341228917    -2.114813343410481
    O    3.05397702252071    3.488036337498884    -0.35800671327889355
    C    6.063240233924153    -0.04930038414831184    2.360439957929513
    H    7.138684604840066    0.06650858101124951    2.3157979370496244
    C    4.061815136827252    -0.4681083388708629    3.633175137772903
    H    3.5841553180800814    -0.7080297857067686    4.574262512693448
    C    1.5526247092747882    -5.395977727222633    2.3872031661887325
    H    1.9248720639293173    -6.115041451864481    3.106484543455767
    C    4.7689868051853255    2.725863341210986    -3.459675620662696
    H    3.899539401672588    2.5502578304745693    -4.07645441970413
    C    5.715360179633902    3.2352443133114837    -1.3010473386769976
    H    5.5601727423110185    3.4636963240478953    -0.25453681110311405
    C    5.437886764271455    -0.28514994145952466    3.5788546417647207
    H    6.022638437719946    -0.32315655699519613    4.489069704918396
    C    6.043350790118726    2.6601997863471785    -4.00060751208162
    H    6.166202248076576    2.5362049420344595    -5.070185120822666
    C    6.988691130295988    3.150316642189121    -1.8403350927998237
    H    7.854970767668233    3.3099998977689955    -1.210615973137791
    C    7.152239390610237    2.8720943854266308    -3.192175679206101
    H    8.138117520019911    2.9431984625595744    -3.63929471709211
    O    -3.636674126395436    1.5489291658309308    0.03902938207390036
    H    -4.554060432430174    1.471106111965507    -0.3085720268024963
74
    Energy:       unknown
    C    -8.149738385185145    -0.517380814750098    0.02587438351714238
    N    -7.862749845912197    -1.605581569950853    0.7385961423620521
    C    -9.451845564148877    -0.05831817235878381    -0.14680916247498435
    H    -9.642018090595883    0.8139588629846902    -0.7636635687633245
    C    -6.9591568959387216    0.10962194301246216    -0.648643062270244
    H    -6.493274189337951    -0.5773814543843327    -1.3463129919096168
    H    -7.344583487309844    0.9122348334005446    -1.277892530925694
    C    -8.884341515410044    -2.2932075330478363    1.2524428737966422
    H    -8.611279484049048    -3.1998741785689933    1.7854243624071628
    C    -10.504413812430942    -0.7535259316680959    0.4324060811816789
    H    -11.541389191681903    -0.48258766401449305    0.23844048998589298
    N    -5.996061265546322    0.6839586957649346    0.24845210296228568
    H    -6.4553920026318155    1.2328239308861488    0.9738431846856667
    H    -5.312078067767901    0.25669104074736854    1.0222945549900555
    C    -10.217002606324378    -1.9133597263806679    1.1411668241534974
    H    -11.017160461385249    -2.4564037961518737    1.644619880645334
    C    -0.4185293242080515    0.004048365944432097    -0.7980238015981783
    H    -0.7578847960134182    -0.31541415149346375    -1.78053103150944
    C    0.9422389076242365    0.7324821324244657    -0.916197353301891
    H    1.480354370096631    0.4778928289946009    -1.8239480968782436
    C    -1.3379339360629219    1.0695006684560107    -0.23777472812475373
    H    -1.2139192397823377    1.1224961997599607    0.8534339651743055
    O    -0.38432290380941586    -1.116351648566283    0.0774808050031823
    C    0.5533341954298976    2.217875787394223    -0.8114495552007599
    H    0.90569820067476    2.584561367275007    0.15494928027652533
    O    1.746423505790211    0.38191389481096755    0.21258778454217647
    O    -0.8735543632092023    2.2584017733704194    -0.8406051985869245
    C    -2.816994669807851    0.8887868609382696    -0.5770607386242487
    C    0.3087760463148574    -2.1711128240063813    -0.405165439924066
    C    1.0310815921627814    3.1354344388331117    -1.9298503465976002
    H    0.9638413080211027    4.173303685051482    -1.6063527655587677
    H    0.40162405873323026    2.9899963994123904    -2.803937209705534
    C    3.0692416442443964    0.20651119431715362    0.003113694326350195
    O    -3.2243669636296994    0.38215231420163254    -1.593019027964859
    C    0.5063368029572594    -3.2645053252205636    0.5894855054140407
    O    0.765292738784175    -2.191810101687147    -1.522030725316546
    O    2.3539414250520863    2.856981079201018    -2.390669195555542
    C    3.8084207026626817    -0.05192189631166466    1.2686488585036793
    O    3.5900380090938078    0.2750973947759484    -1.078314438025209
    C    1.1364486451452869    -4.428006612875023    0.15174905610880196
    H    1.4435591339431868    -4.490352989162103    -0.8842313218065101
    C    0.1406162473410016    -3.130365539398065    1.9260846963840672
    H    -0.3212085926341657    -2.209527467559569    2.2605018505736933
    C    3.3501014602992902    3.130489156373708    -1.5305685601840393
    C    5.197120616140503    0.003849619253495083    1.2144965353611588
    H    5.670110899207406    0.21243919478454207    0.2634577839495813
    C    3.1616737783598636    -0.2828107131444886    2.478642805131238
    H    2.0805902247917865    -0.32368166006687193    2.510607605444681
    C    1.5469533742914514    -5.377314001661825    1.0753342576951714
    H    2.1721844522845846    -6.205777253986884    0.7648099403024664
    C    0.39942382421796807    -4.168362187156687    2.812209631937746
    H    0.11916387817945422    -4.064718007452689    3.8526964695966215
    C    4.69357104685483    2.9369245321151625    -2.1345201887548892
    O    3.1547370739292053    3.5032285070572002    -0.3995677773187595
    C    5.9410774807159    -0.19116152413955026    2.3672251258136683
    H    7.021551067195524    -0.1352376795735261    2.329878821240529
    C    3.9101838988185076    -0.46175764769852184    3.632361579139641
    H    3.4131948683459337    -0.6579979493009745    4.573429743570917
    C    1.1922826026092046    -5.237945871176005    2.411530613787063
    H    1.5742374403761905    -5.93337049364711    3.1490018144436736
    C    4.852064276167945    2.5957742065640708    -3.472118209559982
    H    3.980346743236323    2.4629367132632303    -4.0963488628575115
    C    5.803933304059307    3.0803922114822715    -1.3102623119938654
    H    5.651667390658922    3.3359096966015236    -0.2695979306903021
    C    5.293897113345824    -0.3437788057540808    3.587907131134156
    H    5.866374720954845    -0.3657926250871219    4.5062108738500815
    C    6.126237876601464    2.4542737880449534    -3.9991756572362664
    H    6.25282789433355    2.335212652147774    -5.069436102695097
    C    7.075772255889122    2.917491922819297    -1.8346944438944155
    H    7.94300724305833    3.0341578326406418    -1.1969626823604036
    C    7.2372518179385334    2.6103760660790267    -3.18064721899597
    H    8.228929940094863    2.6425976017949244    -3.6214211818272544
    O    -3.6791811643313497    1.9804717886050571    0.06309793031245813
    H    -4.587355277883571    1.9734446358185094    -0.2966916207133797
74
    Energy:       unknown
    C    -7.836085818065902    -0.63381711678759    0.024336202509113704
    N    -7.367602920307636    -1.7904147625687739    0.48743086470839253
    C    -9.19087462820402    -0.3154180509206704    0.04520643976383831
    H    -9.533929855624198    0.6188117901362143    -0.38845780479292913
    C    -6.783751805525919    0.241393821780368    -0.5984922066726676
    H    -6.308373209107665    -0.24706520968390455    -1.4396676516793179
    H    -7.321903702746972    1.0773675537368474    -1.0453127393708015
    C    -8.255922417703479    -2.6866561122004327    0.9241482030907279
    H    -7.836983474012691    -3.639258117572064    1.2380174520287435
    C    -10.10203096359043    -1.2287692252349214    0.5585434638222485
    H    -11.1780390574408    -1.0599422635836915    0.5091953527635388
    N    -5.825968412493287    0.7778316106771522    0.317976474486833
    H    -6.2928587070089055    1.0988126316102744    1.166556493907751
    H    -4.924147034104433    0.5738182891982717    1.0225371806991594
    C    -9.62627832762338    -2.460481118424701    0.9941798635023593
    H    -10.313304659284492    -3.1758226283942497    1.451670705365287
    C    -0.5378441829716126    0.19157329556017685    -0.7891099600693363
    H    -0.8986138387224337    -0.10995231473038465    -1.7694722173025854
    C    0.8632854633873164    0.8390955311898785    -0.9134013945903791
    H    1.382571647983349    0.5530667832415513    -1.8228330191202657
    C    -1.3918586485649795    1.3090118494754575    -0.22891129949965325
    H    -1.261229156523055    1.3512566896323954    0.8621068734956558
    O    -0.5681156056466676    -0.9269299618391152    0.0893974459263634
    C    0.5636098849434273    2.3449807410808647    -0.8095794244182871
    H    0.9455458975869907    2.6940599030735193    0.1520464049653573
    O    1.6510880266229317    0.4439612543462133    0.2117479752496523
    O    -0.8579223664798978    2.4704178070050267    -0.8237705506245458
    C    -2.878044681026177    1.217109862394149    -0.5784615928434722
    C    0.059266591974053325    -2.0235117276644927    -0.3920740008368288
    C    1.084821229506706    3.2278479611227957    -1.9367752200383068
    H    1.0753265348686867    4.270366174950439    -1.6219054096187309
    H    0.4442984233111239    3.1111335037403767    -2.806981737166264
    C    2.9613198816563147    0.19336201441851048    -0.0033307262709317974
    O    -3.304948642260825    0.8903045897505537    -1.658662643052623
    C    0.2280939768404494    -3.111536465744332    0.6147584309285841
    O    0.5075671566788298    -2.0749243547920537    -1.5118910857839778
    O    2.386645175949183    2.8712202012012837    -2.403087071959144
    C    3.6959421890512654    -0.08143211608775597    1.2614442864660689
    O    3.478815006043115    0.22512477782096738    -1.0879137417179225
    C    0.8062653602983976    -4.305273008266899    0.18552240463426486
    H    1.1066183470381108    -4.389278922295195    -0.8510280046541833
    C    -0.10948667285752767    -2.943614922892526    1.9552859112106176
    H    -0.5275049995280747    -1.9992381818336213    2.282809925911151
    C    3.401169166078082    3.094170992440618    -1.5499021325233397
    C    5.0851993426441    -0.09939891633012729    1.1983944525262546
    H    5.562447129412573    0.072195757211733    0.24209138546631118
    C    3.0464605221787373    -0.2533509221878378    2.4798137280550816
    H    1.9648082897461503    -0.2388333076331894    2.517991776967915
    C    1.1935893351735631    -5.256459990639582    1.1177361507819783
    H    1.7913954472351152    -6.107437081738297    0.8133910095634369
    C    0.10475417342484418    -3.986606531770151    2.8482834406732205
    H    -0.1573769010375995    -3.8585825490969516    3.8908250521274543
    C    4.728897987322456    2.8327464628251735    -2.1628688924102937
    O    3.2327427411208136    3.4843645414905646    -0.4204291887505789
    C    5.825084815231052    -0.325642890093428    2.3484182877415773
    H    6.906728751051346    -0.3255306885754318    2.304340975255223
    C    3.7922568891456088    -0.4565259137521189    3.6313180549401007
    H    3.2923701895368813    -0.6100375012070551    4.57866213682972
    C    0.8647956070657079    -5.083610810706607    2.456782718246269
    H    1.2501239669870883    -5.768439735688203    3.202492562084409
    C    4.860814196288055    2.466874350569269    -3.496816214005943
    H    3.979781932620685    2.374670227183717    -4.115286491906706
    C    5.85072078492044    2.9319439358306885    -1.347825497648893
    H    5.719322088321816    3.2155542850137886    -0.3116088068166468
    C    5.179782324344955    -0.40293145599352514    3.5775267340019368
    H    5.756476298662915    -0.430933824069701    4.4928446292438196
    C    6.122548330704601    2.251806407773873    -4.0291180229108505
    H    6.236139115216028    2.1173041255962572    -5.099358963647592
    C    7.108964998455863    2.696835203954722    -1.8773600224852633
    H    7.9850030522253475    2.776467081292312    -1.2460610117101165
    C    7.245437150251581    2.358524437913906    -3.2186761272787314
    H    8.23446683512338    2.345663573418861    -3.6676615545721485
    O    -3.733370108627146    2.3778449219463766    0.15812670605852872
    H    -4.638991457139787    2.4187637593944307    -0.1898657272486891
74
    Energy:       unknown
    C    -7.4912906649351    -0.7097948856823875    -0.010228081699002134
    N    -6.86551298811483    -1.867392018611868    0.18361835711080268
    C    -8.862931481397691    -0.5647563839133127    0.17780307631778886
    H    -9.34266531222533    0.3812033700803409    -0.05514893467214832
    C    -6.592266064706082    0.37895111886807403    -0.5247474218004263
    H    -6.147389508144492    0.10533726568406185    -1.4718094767589212
    H    -7.258258868095869    1.2058290022651552    -0.7695749716651593
    C    -7.609114129446441    -2.928521125973062    0.5080907266368646
    H    -7.068366623850354    -3.868188596671139    0.5894032954327122
    C    -9.61956412750305    -1.6567146791622813    0.5832548097915319
    H    -10.706442537728918    -1.6137687445677165    0.6642579354172471
    N    -5.618762058143275    0.8478454333516727    0.4067570317776424
    H    -6.047289004213861    0.925007395495114    1.330712159275023
    H    -4.618460590709211    0.98182510142866    1.0880603136890743
    C    -8.982219053663908    -2.8850444407846223    0.7257260286728536
    H    -9.540181066450346    -3.742459311981763    1.1120518032616955
    C    -0.6845002849318698    0.3401324040374342    -0.7542150147560043
    H    -1.0686696739182628    0.0681979116460355    -1.7342956806439545
    C    0.7537082184719501    0.8996914173972708    -0.8817340433270127
    H    1.2474545932965262    0.5896379368573855    -1.7976205699059087
    C    -1.4659429664739936    1.5037340777128638    -0.18394091458040668
    H    -1.3339992189956706    1.5225246873220475    0.9076228758149087
    O    -0.7814527179043982    -0.780485511697629    0.11727281347607213
    C    0.5516162055088932    2.4205108444472314    -0.7641211685902723
    H    0.9684399655669519    2.739210224006378    0.1934642818148168
    O    1.5246013236466975    0.44632971768252727    0.23277584677885482
    O    -0.8580666205310697    2.637648330558463    -0.7567999390685934
    C    -2.9514483310904414    1.513634604814595    -0.5489862651207469
    C    -0.22630309651021382    -1.9127302325441045    -0.3725783856904875
    C    1.1112820289688408    3.2745568292648835    -1.8954754527928093
    H    1.1685377458348112    4.314890359167464    -1.5787784289867914
    H    0.45398938646874337    3.19985423912153    -2.7577237772008347
    C    2.8173003501475895    0.12334166506108003    0.005023691068313219
    O    -3.388267751959767    1.37232984027071    -1.6650918509830954
    C    -0.02136283598860703    -2.977601921693042    0.6531409193994582
    O    0.2029327777441511    -1.9861687941712571    -1.4991455972956462
    O    2.380997955978732    2.8377112416841928    -2.3812157363682513
    C    3.5697839122636594    -0.10603631047922349    1.2684185649965938
    O    3.3212092005967158    0.11756527346690768    -1.0863481299323454
    C    0.5067973525899103    -4.195064769182857    0.22547190346167367
    H    0.7840490447092405    -4.29912292528585    -0.8157327723140596
    C    -0.30141238262181946    -2.775713355479715    2.0023936475593707
    H    -0.6721574134571698    -1.8108455073715293    2.3279987772543755
    C    3.4193776434902747    2.994190744335183    -1.5420492473642484
    C    4.955786211111642    -0.17900154771217036    1.1815023561365428
    H    5.42204127893326    -0.040898643542626845    0.2144097496060601
    C    2.9373630354132563    -0.21441978146953275    2.5029663054497004
    H    1.858138003182518    -0.15265446961249352    2.559505883781389
    C    0.8859995642126325    -5.147746378041233    1.1596910762480566
    H    1.4450364785375716    -6.023378795148999    0.8510702253467948
    C    -0.10606943031889463    -3.8169212185410544    2.9022485953516264
    H    -0.3308146214487812    -3.6657780698407274    3.950390175247777
    C    4.724043249141169    2.709332473161724    -2.1930559852395852
    O    3.289868837214856    3.385701822994969    -0.40787482690315663
    C    5.707758574316132    -0.4033494524430498    2.324255320517404
    H    6.78748375417777    -0.448137447296463    2.261163067865763
    C    3.6964691397682965    -0.40983217668202526    3.6470726714784485
    H    3.2091661601324963    -0.5220837106390467    4.60660718183012
    C    0.605911947912318    -4.944112052949638    2.5055251134830647
    H    0.9713589698921792    -5.643158728499542    3.2480050919105508
    C    4.811193594887948    2.328370428389931    -3.5264704266686504
    H    3.9137144471502516    2.266218852961695    -4.124749934018939
    C    5.871399686383263    2.8071891296099967    -1.4143980891346486
    H    5.776395700571655    3.119879735157377    -0.3826009499216509
    C    5.083788078926064    -0.41306107520429525    3.566894172811056
    H    5.676206465411111    -0.45058650265858247    4.471649113941063
    C    6.050056113469968    2.050157600695597    -4.082790004806589
    H    6.132038710660138    1.8884641988107795    -5.152316389168521
    C    7.105943808775595    2.5092658045796656    -1.9673037220067775
    H    8.00039701477601    2.5756846531590285    -1.3608715473481112
    C    7.195916464908123    2.1315534510974397    -3.3020205091778556
    H    8.172556562594988    2.0710479341310495    -3.7741800388489133
    O    -3.7996762167623523    2.747777806163924    0.3021265845563744
    H    -4.707251915502797    2.8231946385943965    -0.022407259808939595
74
    Energy:       unknown
    C    -7.092995383399958    -0.7789744240554908    -0.002251808311215601
    N    -6.341176764949884    -1.8727514645505121    -0.07623666558749058
    C    -8.442415300561473    -0.8270650450905589    0.33650388375648216
    H    -9.037009458505198    0.08140351651788386    0.3091495376325544
    C    -6.369698592169666    0.47403389883810676    -0.40444596527406074
    H    -6.008767080919904    0.40720174582879876    -1.4212026599290863
    H    -7.1366728321477835    1.246625165334811    -0.4384549256841058
    C    -6.935383870124561    -3.053326287323455    0.11763535520855634
    H    -6.307787238140672    -3.9279018473869547    -0.034225580183262355
    C    -9.034919398434711    -2.0511283460840835    0.6199019498819044
    H    -10.105670891372577    -2.152939728301631    0.8003758194223162
    N    -5.335967383930036    0.889037757505777    0.4848526670452777
    H    -5.654188893389426    0.7372487686087345    1.4436970602771708
    H    -4.401570850399796    1.4331322291826532    1.1831261342313548
    C    -8.273086234458335    -3.2054060490641514    0.47000919032763616
    H    -8.69957759058776    -4.175161914168652    0.7439650904430696
    C    -0.8307774841900651    0.4706981714046767    -0.7419334507973482
    H    -1.2372896014064405    0.22430853238019094    -1.7197633650553268
    C    0.6348931070969182    0.9512610502223162    -0.8742679703889523
    H    1.1085381188699432    0.6171030273138849    -1.7924002192919974
    C    -1.5443540867018009    1.6727305327375228    -0.16236945451006843
    H    -1.4048334627397305    1.676068523166374    0.9284662139872824
    O    -0.9857177251027368    -0.6458210472861048    0.12688325643970985
    C    0.5172664894494632    2.4806542636931868    -0.7534668968850086
    H    0.9614279751701407    2.7764303186583006    0.19907410857894164
    O    1.3852299792046543    0.454873301748613    0.23565427777101242
    O    -0.877577460403358    2.774981114425929    -0.728798671648986
    C    -3.0270829781816584    1.764845945792496    -0.5233850824609263
    C    -0.4952509178025373    -1.8074898890699032    -0.3648564459146063
    C    1.1095249485081091    3.300885529724302    -1.8934265841241043
    H    1.2168471012604183    4.339902144012348    -1.5857159094424107
    H    0.4443558331559511    3.2512368867904864    -2.751446780643417
    C    2.6606751324074107    0.07040993328169144    0.003937646030353123
    O    -3.4726632492148397    1.8051306517036039    -1.6446645965527513
    C    -0.26136722806485435    -2.8512920573841636    0.676979522986726
    O    -0.08538405037375787    -1.9029288836017084    -1.4972073968868738
    O    2.353661453880029    2.798622907345461    -2.3825887266301478
    C    3.4236941257453037    -0.127258381913405    1.2665206362590602
    O    3.156280508416426    0.034879882267749525    -1.0906649953102845
    C    0.22438605098243472    -4.088724259267987    0.25653094369793583
    H    0.48675589613609366    -4.211865102850508    -0.7864074946627877
    C    -0.5000584792459696    -2.62056760882428    2.0296641551840366
    H    -0.8309405805212274    -1.6391677152546553    2.349207565942718
    C    3.4028841457154897    2.910165177693908    -1.5496400894197122
    C    4.804875468503218    -0.25303279974451204    1.1670093174212717
    H    5.265828989798704    -0.14423894651624317    0.19365779443243103
    C    2.8017253779866484    -0.18264723172027345    2.5098865267029247
    H    1.7264589088541245    -0.07691724220128941    2.5758707452817027
    C    0.5793384254577306    -5.045894132190365    1.1955709769302338
    H    1.0987887975437305    -5.946250701560567    0.8886498509492419
    C    -0.33125291765646786    -3.6587547717362474    2.938410367499423
    H    -0.5312212758905672    -3.4874538721149273    3.9884030484884057
    C    4.692343600497224    2.590400553742262    -2.2147002699999043
    O    3.2975018519373407    3.3150925475844373    -0.41762652381323423
    C    5.560725459154982    -0.47986822259338524    2.3068119740203494
    H    6.637103818234989    -0.5677517443157578    2.2337386737856093
    C    3.565961798562043    -0.37667661554585086    3.650729781888368
    H    3.0853610328645433    -0.45384209955559907    4.617048957457815
    C    0.33321151185481684    -4.815330535273657    2.5437334331128088
    H    0.6700110776563784    -5.527268699877377    3.2873804906274904
    C    4.754717635245516    2.1924009432166067    -3.5445463055402517
    H    3.851604865527819    2.1622448095291977    -4.136826922278865
    C    5.853362690016456    2.6906687688980804    -1.457010213196059
    H    5.779637140849556    3.0329294290056477    -0.4329158944115824
    C    4.950985980789097    -0.4372706204700337    3.5558784928287728
    H    5.550867009214278    -0.49064227162570717    4.45482581289578
    C    5.977451020742212    1.8575384682967058    -4.105405527270983
    H    6.042576700308317    1.6644973207908367    -5.170854822809233
    C    7.070782200993098    2.3341137651932304    -2.0129826639075894
    H    7.974859814832002    2.396673978062143    -1.420668095705778
    C    7.133420116039585    1.9178369419486982    -3.337715047612819
    H    8.10243215516047    1.8053203619649112    -3.8158855298855854
    O    -3.87329743783699    3.088715858990017    0.4508451199419564
    H    -4.782397615798888    3.1913058351174164    0.1463731726581256
74
    Energy:       unknown
    C    -6.684229616843109    -0.8557355379835557    -0.04263885124303741
    N    -5.850101912584884    -1.840323305255682    -0.3604418350917044
    C    -7.969786026545262    -1.0972753578233847    0.4332322199507932
    H    -8.6440496608987    -0.26362158053944607    0.605493766503169
    C    -6.139944904357055    0.5131557270414765    -0.3302794150346979
    H    -5.902041803934471    0.6298360370215347    -1.3783970075337724
    H    -6.969220628399721    1.1969427070640686    -0.1557859780840135
    C    -6.312449751707306    -3.0920705643999673    -0.313821871939684
    H    -5.627900047534075    -3.86248749547992    -0.6590113842607445
    C    -8.413742827091111    -2.4065808145336023    0.5692036644372991
    H    -9.435211528546477    -2.6474848914418154    0.8627366660164895
    N    -5.0281607637040535    0.8989788832964212    0.47350401676036324
    H    -5.174107784482524    0.5683789845873248    1.4274763034842932
    H    -4.351848347057911    1.8283778436231999    1.2283436911246437
    C    -7.5752710292607315    -3.437288858602481    0.15818825249579505
    H    -7.884280585600825    -4.478070723117563    0.29635463492658776
    C    -0.9500351571927764    0.6035630455105058    -0.6821595474487017
    H    -1.3798723445937802    0.370691476398361    -1.6535017268844001
    C    0.5299228477194305    1.0270353713868863    -0.83446187740325
    H    0.9770843248303139    0.6731997683089623    -1.7586389334349584
    C    -1.6115704299106353    1.8331598816297392    -0.09680540276878946
    H    -1.4647542195568508    1.828023373539853    0.9930418737568937
    O    -1.1366963295118817    -0.5037714395790438    0.19254487050186345
    C    0.4735924601194585    2.5599554253045187    -0.7162273168693991
    H    0.9497852932464029    2.8416826921101888    0.22492429066159128
    O    1.2760309825098923    0.5040543110322634    0.2657689937993473
    O    -0.9070048001507358    2.910134122120972    -0.6632498609543959
    C    -3.0900702434789338    1.975951876625368    -0.45191462490792245
    C    -0.704753806748131    -1.6881327360448706    -0.3006875006436733
    C    1.073274994585157    3.349707194371442    -1.873955801476915
    H    1.2257352717024428    4.38647164606836    -1.5778991641264455
    H    0.3896340989053704    3.318153123367312    -2.7183324912439772
    C    2.5298875939157615    0.06360985663009978    0.01596420583141874
    O    -3.5364057329049974    2.192794523668057    -1.5533715714558014
    C    -0.476327874912208    -2.726852297497078    0.7474818751267949
    O    -0.31642242965037254    -1.8045660758102422    -1.4384686811800445
    O    2.2875742205170693    2.795789720674774    -2.3829850693146892
    C    3.309131791228986    -0.1441348964053865    1.266910693105516
    O    3.0035704461886112    -0.0033625960175062003    -1.086815271438294
    C    -0.04930284437854537    -3.9862902793184016    0.329370315586399
    H    0.18715948807345897    -4.129686690260554    -0.7170659245103126
    C    -0.6718449440068545    -2.473214181236506    2.1029866007430646
    H    -0.9571098230737245    -1.4766703220629944    2.4195523582169662
    C    3.3546598384866004    2.8662538230632886    -1.568377940849797
    C    4.680444136707297    -0.3371402269561639    1.1436581240827837
    H    5.127512640374872    -0.2623603631172868    0.16067911962349596
    C    2.7082395539775193    -0.1587403344984127    2.521746097978694
    H    1.639826077154961    -0.006587390657542906    2.605061871782953
    C    0.2685181100828757    -4.955260969460686    1.269276616273999
    H    0.7324393184843412    -5.884743202251158    0.9602679622876941
    C    -0.5352872865382219    -3.51059712880067    3.0177490471569204
    H    -0.7065166538227772    -3.322201735243646    4.069789297879878
    C    4.617397965293277    2.485199754805442    -2.2522500977039104
    O    3.286309379357499    3.2844983392853266    -0.438355124741729
    C    5.4468514664643175    -0.5815491399032231    2.27269702256244
    H    6.516505939506414    -0.7193206357949901    2.1813701586029453
    C    3.484596111371918    -0.36828746262493717    3.6515021144121325
    H    3.0191679680415215    -0.41179456232317335    4.627307480947316
    C    0.06203460622589595    -4.702075454568052    2.620025838298556
    H    0.3647779946267827    -5.430137628534655    3.3625226763792155
    C    4.6388070040364395    2.0587935008015315    -3.5745915765727787
    H    3.724769603264485    2.055812624894073    -4.150704901755622
    C    5.796899787003964    2.5627794898484373    -1.5210177270589846
    H    5.756258284735582    2.931367222291711    -0.504278952702092
    C    4.862785216230614    -0.4983258491297243    3.5318801746355444
    H    5.475806164791582    -0.5726126384075021    4.4203751388571755
    C    5.835820657426543    1.6595708531647888    -4.14866140561926
    H    5.871395889571527    1.4288961493941994    -5.207806024317371
    C    6.987842412507371    2.14268094250595    -2.0895950711992275
    H    7.905295804855845    2.1853045613523356    -1.5165455837486825
    C    7.007666833304237    1.6905084124459318    -3.403740553000879
    H    7.961024065524027    1.5122971387493058    -3.892600278404109
    O    -4.000011347230263    3.376204187885143    0.6608406085873294
    H    -4.889703156740836    3.5295407738126725    0.32561370354570884
74
    Energy:       unknown
    C    -6.2473571337010565    -0.9519603911763624    -0.11077902223656848
    N    -5.3702175275555    -1.7989456544398836    -0.6397667575842068
    C    -7.440748001601439    -1.38083071028224    0.46200836439374277
    H    -8.156745125857645    -0.6485227352581061    0.8221284733668742
    C    -5.884405891351441    0.4933191472641277    -0.28902446330495146
    H    -5.787688601899416    0.7615681131982178    -1.3325259091827357
    H    -6.7379261510506305    1.063781815516759    0.07400602766485177
    C    -5.711946409883617    -3.0862437348184693    -0.7205148854797169
    H    -5.007444590697034    -3.7335210740767804    -1.2356132054302753
    C    -7.748554139377899    -2.7352121647155014    0.4605458650308088
    H    -8.702128574265629    -3.1113337202628553    0.8270304166710577
    N    -4.7044895801365    0.8927641493471055    0.404752678855306
    H    -4.649606765098445    0.452523963913709    1.3202117428515703
    H    -4.447383999618042    2.1089095003599843    1.223352582514848
    C    -6.877471747519044    -3.6135581757129605    -0.17395409528035172
    H    -7.096375901026364    -4.685255958184027    -0.18776194655750927
    C    -1.0297043011824716    0.7510621120009824    -0.5971411317755818
    H    -1.4876858790124865    0.5168558973034445    -1.5555361508505317
    C    0.452695482863216    1.1430164061551062    -0.7858780125017379
    H    0.8702673038900426    0.7707503153034697    -1.716785188264162
    C    -1.656268784625439    1.9997277159894786    -0.009213108884281264
    H    -1.4916947966559522    1.9980579111209742    1.0780993694640337
    O    -1.217179369853521    -0.3425393970018575    0.29478998166063214
    C    0.42899147524145936    2.6777666976767027    -0.6826047227499511
    H    0.9391332460922569    2.9600904652046993    0.24031505355899022
    O    1.2117163488485925    0.6161502273528995    0.3033189218046001
    O    -0.9417340111362216    3.058239084984056    -0.5947249051904222
    C    -3.1371100715743347    2.1544596116674386    -0.3392529548419727
    C    -0.8366212073747514    -1.544767048598195    -0.1966950991606433
    C    1.0128988381955955    3.437894562666847    -1.8680379075799323
    H    1.2007059846888355    4.474241291260447    -1.5911885010588493
    H    0.3034619423985311    3.41104181443962    -2.6912627757010656
    C    2.438909447628979    0.12096025179808619    0.02678140537166397
    O    -3.600664741330392    2.549231883640922    -1.3838738885124384
    C    -0.6605429613162135    -2.590113114027663    0.854109470048
    O    -0.4681725222585226    -1.6845117796496518    -1.3377626877382183
    O    2.1985021800220954    2.8474948101067104    -2.404750376921655
    C    3.222936473225131    -0.15328532990542554    1.2614494819568973
    O    2.882210334755803    0.02122351013223717    -1.085987850016849
    C    -0.3168590010401955    -3.875064144056142    0.43826461999381733
    H    -0.11062038986059193    -4.041144815281808    -0.6110573807231641
    C    -0.8261430877037704    -2.3184267675073627    2.209949565627906
    H    -1.0527176281017363    -1.3063019574115116    2.523846455315906
    C    3.286014825462846    2.885064796533285    -1.6153707830857917
    C    4.575858130376585    -0.4359577424767868    1.1123488581989367
    H    5.005844331001332    -0.4021758211105322    0.11955575879867693
    C    2.641852495906377    -0.1481841067336253    2.525657856609005
    H    1.584932859331461    0.06130431352821613    2.627476120187353
    C    -0.07092449832928652    -4.863501765236575    1.3789494249846042
    H    0.31520942418316844    -5.827581719834992    1.0693718921081672
    C    -0.7436209790675807    -3.3561815667945405    3.1300386010116803
    H    -0.8872774569601429    -3.1511870321888926    4.1829858213511235
    C    4.509201794612526    2.403045950828212    -2.3074360621170773
    O    3.261549439830573    3.323745957588283    -0.4913339346846294
    C    5.346524415182863    -0.7268510029645852    2.2272237900521157
    H    6.404020708058206    -0.9286308337760583    2.116514033307827
    C    3.4257849589383977    -0.39778030479301757    3.641838963141664
    H    2.977601453919948    -0.40620227102352324    4.626649864661797
    C    -0.24297057600150415    -4.590494270168407    2.730585248423062
    H    0.0005264850603086823    -5.340716510948905    3.4726123543889997
    C    4.479542047360769    1.9308099697269268    -3.6139638988908964
    H    3.5538564535024637    1.9545603097054765    -4.170740094540359
    C    5.702412928471292    2.421201336423927    -1.594904799340485
    H    5.700827606475346    2.8148373087886833    -0.5868350298593327
    C    4.789791865806671    -0.6179962153398764    3.496606428362204
    H    5.4120532213648    -0.7365580730025743    4.373794438102122
    C    5.640685319834205    1.4464782510177492    -4.1960534907477856
    H    5.640758580113018    1.1700047737658825    -5.244430003041246
    C    6.856685567810224    1.918591315566485    -2.171789694516017
    H    7.784580152273697    1.9198814988217756    -1.6143555545144341
    C    6.825072486223174    1.4263300940181085    -3.4710499706074716
    H    7.755109616499498    1.1636473971098638    -3.965645525889975
    O    -4.2254491132029015    3.5747273780704867    0.9611269131394548
    H    -5.064274708222557    3.836175998862311    0.5673049263829738
74
    Energy:       unknown
    C    -5.818369580430671    -1.0171101281334285    -0.21818972701896452
    N    -4.921009059007623    -1.7096345593002427    -0.9136638960552194
    C    -6.903958079104424    -1.6221184857676323    0.40629287822976745
    H    -7.631585047199246    -1.0107046267608435    0.9300567991245927
    C    -5.628224874126489    0.4710946914908063    -0.2686330119815932
    H    -5.665409676237237    0.8667682778295683    -1.2759127185158392
    H    -6.478600352065503    0.9119519753129783    0.25018068818335826
    C    -5.150493148986737    -3.007687793124051    -1.1139587219409979
    H    -4.4429899238223465    -3.522545602625991    -1.7575218247998081
    C    -7.091238955123176    -2.9905775270587536    0.2642414837565948
    H    -7.958494834257528    -3.494815947901352    0.6832342150460179
    N    -4.41352092602827    0.9157820536052572    0.33816468273098776
    H    -4.175980369591189    0.4071403940869386    1.183053981868142
    H    -4.677906458088376    2.334940736835491    1.1222143241647717
    C    -6.2113430738771305    -3.7014899096113556    -0.5420133435194066
    H    -6.341791491425153    -4.776357856021179    -0.6837008349941733
    C    -1.0650179587003317    0.876270022184227    -0.48570402402888224
    H    -1.5496918029233775    0.6261956601299302    -1.4273272361235063
    C    0.4086058556441683    1.265955758720624    -0.7194999163046435
    H    0.7963077169437531    0.8799777038511656    -1.6578762381499685
    C    -1.6825853222167682    2.134030763311735    0.09898962784666587
    H    -1.4992866410808514    2.1454544636671034    1.1832834314643355
    O    -1.2242163485444855    -0.2027516391189017    0.42933456082607174
    C    0.38504619874852797    2.8018402746285074    -0.6375534172255999
    H    0.9271450725847693    3.0976889102982095    0.2625695040553987
    O    1.1971430276361494    0.7543732879534895    0.35564271660855096
    O    -0.9825798965245209    3.184819217963804    -0.5143026456232292
    C    -3.170425802852991    2.2644265649905093    -0.19999937076396004
    C    -0.8809310746406988    -1.417019222974351    -0.05809184580837371
    C    0.9348164537046059    3.5389202324242484    -1.8535280204965783
    H    1.153148079801872    4.5742527645224005    -1.5952971593455798
    H    0.192989948896903    3.513468643827515    -2.6480956607086013
    C    2.396205076448676    0.21290598245841746    0.046838526037620835
    O    -3.662236536378872    2.8216792129078403    -1.1555505538709223
    C    -0.7867759809883914    -2.471982759178551    0.9919873396714848
    O    -0.5303713076836288    -1.578619256190329    -1.2008630036452443
    O    2.090218446058812    2.925064142788187    -2.4305172374589006
    C    3.1787394813468435    -0.14531688365120765    1.260280903274601
    O    2.7938155557035    0.06510277533104758    -1.0777374876579442
    C    -0.5396651735361012    -3.7784543442551906    0.5765229190319954
    H    -0.36804748917474633    -3.9644194413330522    -0.47553930243316134
    C    -0.9323740479680981    -2.187557717863371    2.3472117893767663
    H    -1.090279218999115    -1.162649872207622    2.6603554998124106
    C    3.2014698828269585    2.9254548518206644    -1.674007071334906
    C    4.5027408852107556    -0.5278865999848724    1.078806129254938
    H    4.905424599059648    -0.5417201709792171    0.07418314916420764
    C    2.6195531595778685    -0.13360675249406712    2.5342898143638983
    H    1.5789328912995721    0.13572623058376831    2.6586764336131266
    C    -0.38823716975900047    -4.785834338777663    1.5164490096364367
    H    -0.09335519083216408    -5.781058670258006    1.2058881702194417
    C    -0.9171162482858894    -3.224882154904583    3.270340069666132
    H    -1.0335387836647651    -3.006903767383107    4.323928385185686
    C    4.3679604820543005    2.3248815814848784    -2.371499436110603
    O    3.228607196554766    3.3779369478096553    -0.5555274137037154
    C    5.275758459879883    -0.8772068454859976    2.17482471050603
    H    6.3146599728581485    -1.1484514853013912    2.0401949516007765
    C    3.410050753992176    -0.4360726412999067    3.6325186756081282
    H    2.9866217543466176    -0.4075418587555438    4.627917927725711
    C    -0.5343865302914659    -4.499350625030416    2.8681841737713714
    H    -0.3683725477156158    -5.271583404038995    3.6088098708229066
    C    4.272936055193316    1.805532648809815    -3.6569042403285716
    H    3.3325262224366017    1.856092958545047    -4.186629756141398
    C    5.570819082958584    2.2643944067990036    -1.6778449379848943
    H    5.6149876550531665    2.672638466580553    -0.6766567998391787
    C    4.7504532206184304    -0.7548549857979425    3.456021355502665
    H    5.380549343681217    -0.9262727534259523    4.318789780212829
    C    5.386109872456572    1.2300154058998543    -4.249457358668899
    H    5.339272115218629    0.9063901701096556    -5.282722660676457
    C    6.676462252748587    1.673070416680198    -2.2654606592055515
    H    7.61423853136765    1.6250408134036367    -1.7271631958279563
    C    6.581508413543036    1.146137335052047    -3.5477216876673423
    H    7.476466687770444    0.7902431472289791    -4.0473598027833555
    O    -4.6424717777149045    3.672434240082714    1.2464097512641756
    H    -5.389411704377604    4.088946494984603    0.8033439895153243
74
    Energy:       unknown
    C    -5.403238099634401    -1.00040254821746    -0.2005511642648156
    N    -4.48398347975014    -1.4984410370189953    -1.0246522168664007
    C    -6.35231010367558    -1.7978702130671862    0.4285347397968292
    H    -7.081375232747081    -1.3462508364487287    1.0923960526967549
    C    -5.416382811095262    0.49853131875906953    -0.09820143326738942
    H    -5.60147648348876    0.9958647098398438    -1.0438000162272145
    H    -6.2473092027179025    0.7746819000183169    0.5508863478004822
    C    -4.576926806048064    -2.7853155017713878    -1.3568601871130477
    H    -3.8591146788338873    -3.1397476529563786    -2.090414572488799
    C    -6.396497108273085    -3.153230048412166    0.1329013870215659
    H    -7.151504134774893    -3.8002022137729043    0.5686605633494792
    N    -4.201146352185295    1.0353260227839827    0.4430814478289953
    H    -3.791362898914248    0.4784108188713327    1.1825048900176447
    H    -4.973476506748607    2.6939509239200485    0.8512166447469173
    C    -5.511381038544022    -3.6571030873373975    -0.8097000589767399
    H    -5.530156249813867    -4.712439644523009    -1.0775962177039182
    C    -1.1035034291434342    0.9321801557046253    -0.42941062194487295
    H    -1.6111088984446198    0.6737345320632502    -1.3571728932696037
    C    0.36214175086121625    1.318507134773004    -0.6969329888794803
    H    0.730297536913081    0.91849075196318    -1.6374187793643447
    C    -1.7084601042588983    2.1989259058892863    0.15758198806892004
    H    -1.4975302867230913    2.2230991636160646    1.2368186375588626
    O    -1.244114149131638    -0.13716973303552657    0.49962292661429364
    C    0.3368024566710885    2.855667421342415    -0.6387031442612325
    H    0.901024109727876    3.1662534590859974    0.2425885170794817
    O    1.169647558711249    0.8227599911095368    0.3713896602059118
    O    -1.0297174374010696    3.239122952340374    -0.4937716393938692
    C    -3.2054290204456244    2.306175041608233    -0.09251623914626987
    C    -0.9305355153056859    -1.3601760130883065    0.01624607891407438
    C    0.8602825521027336    3.567183825406406    -1.8810144955389312
    H    1.0905949269934407    4.606124307780349    -1.648122725119463
    H    0.09882917323703772    3.5279603328045606    -2.656649894908042
    C    2.3494514090101752    0.2500942658094352    0.047465843062135124
    O    -3.732499528015936    2.9724040769678868    -0.9571120177038688
    C    -0.9049498045929971    -2.4169406760770697    1.0665195516103283
    O    -0.5951408225411777    -1.538176657852714    -1.1275119328658147
    O    2.001381763832838    2.93754587004317    -2.471822146089531
    C    3.1189513337989387    -0.1660240356511857    1.25037248962207
    O    2.718877237711524    0.07130897953552544    -1.082350317566436
    C    -0.7163598435130792    -3.7336008345099634    0.6546677116039064
    H    -0.5620253095674657    -3.9324726939978287    -0.3975898620830637
    C    -1.0434249760346288    -2.122628884938158    2.4200024025486364
    H    -1.1554279103261682    -1.0918818488783204    2.731810779807797
    C    3.125507252649571    2.9311982587130223    -1.7344260856099016
    C    4.421152708434195    -0.611013867422056    1.054546317100906
    H    4.808236122847626    -0.6544381635487487    0.044676026866675114
    C    2.5696979384697713    -0.14144471036275535    2.5285018706489035
    H    1.5409504188414127    0.16547118577798337    2.6619718029903727
    C    -0.6542042440485988    -4.749780941644668    1.5946041908184627
    H    -0.4297300978084383    -5.763235638920597    1.2853297830890207
    C    -1.081212398085994    -3.15529632985229    3.3465004588421845
    H    -1.1869100622545514    -2.928781912308222    4.399296109422282
    C    4.258584826782269    2.2592737240091174    -2.422340842899194
    O    3.1788351953918568    3.4026321756377333    -0.6247224052490565
    C    5.184220595768819    -1.0082745606821513    2.14076719259134
    H    6.209035187231939    -1.3236576709247645    1.9957334632788435
    C    3.351042198069519    -0.497483681522886    3.61705149694022
    H    2.9406518119684826    -0.44633665444664455    4.617087063704014
    C    -0.7940263652961626    -4.454168599842626    2.9448050117073583
    H    -0.7079092805244149    -5.240343313956923    3.6841695299361614
    C    4.131981062560571    1.7094403668948077    -3.6923135354272447
    H    3.19258320663411    1.7911925689692139    -4.219997085951707
    C    5.457753297844648    2.1507269400537083    -1.728184072182556
    H    5.524415268010162    2.577858496830699    -0.736277699444807
    C    4.671091850969353    -0.8845636440866121    3.4263977634102707
    H    5.293755311737239    -1.111200646343489    4.281853423979808
    C    5.217840807330896    1.0785372149253254    -4.278985109883626
    H    5.145346235902058    0.713804443427074    -5.2964036760726065
    C    6.5359145177352405    1.5059874591076061    -2.310366194146062
    H    7.472354090197345    1.4256393318965181    -1.7738409064951726
    C    6.409778991632907    0.9516305409018875    -3.57807142100627
    H    7.280265471224548    0.5278620523665648    -4.066305156032189
    O    -5.280795900003872    3.7620262123658086    1.3050193478326915
    H    -5.906619607093068    4.3425096635071565    0.8585302423289446
74
    Energy:       unknown
    C    -5.100974771898003    -0.8928462010270497    -0.08349133192689352
    N    -4.1969979187020465    -1.1823261317079785    -1.0195767146793588
    C    -5.899954815931414    -1.8619546174287513    0.5097280423717886
    H    -6.602225429339359    -1.5822488891194613    1.2862027995270384
    C    -5.271569668589097    0.5704538582667211    0.22827299518703853
    H    -5.623132956170933    1.1409445091403319    -0.6268168478068904
    H    -6.028751090200575    0.6827815085430977    1.0042649010982856
    C    -4.150696711703825    -2.431943005470595    -1.4757260551408686
    H    -3.4432796602659677    -2.6211801721207744    -2.2766910038673123
    C    -5.808752300471598    -3.171978266190163    0.06279106799972707
    H    -6.435517941147053    -3.9475332973141444    0.4875776277604768
    N    -4.040513676145449    1.1756830923256236    0.6741938925591695
    H    -3.485769812333448    0.5921739528735428    1.2855428472067287
    H    -5.2340688282545536    3.100765327292962    0.4822837467898716
    C    -4.9326208662694855    -3.463776194817191    -0.9705451715296998
    H    -4.846084487329768    -4.473299651457035    -1.3600035836302617
    C    -1.1499288056076664    0.8952109339854751    -0.41849281547315914
    H    -1.6680863455366073    0.6338768277584708    -1.34024008485143
    C    0.31066495678967    1.2767366199542356    -0.7034365402597815
    H    0.6727468971889841    0.8611110525994675    -1.6395705298390164
    C    -1.7383688639512027    2.1734494273536606    0.16986194948741393
    H    -1.499054384425615    2.213610519996684    1.2429333649195582
    O    -1.2917548475890057    -0.16636064637820033    0.5181918217673184
    C    0.28365524805175935    2.8152067256361235    -0.6740957181051899
    H    0.8589542918969415    3.1429630557796746    0.193610115682775
    O    1.120945041998484    0.7979715817572129    0.37045368826010316
    O    -1.0840487006975423    3.1993971608338656    -0.5245016605154976
    C    -3.2428011091855233    2.251087457149938    -0.03510936047407627
    C    -0.9966529506195613    -1.3964552239281132    0.04360421729681935
    C    0.7899446199704538    3.498298678963925    -1.9388682509096584
    H    1.0149499620988627    4.545069183789725    -1.7368553910656472
    H    0.021062249925253778    3.4314064265119346    -2.7056958472973847
    C    2.2911044166631753    0.20490753726100192    0.0508628393295191
    O    -3.790090900665346    2.9383406117647928    -0.8722277258812848
    C    -1.0270584867863854    -2.4461621505772873    1.0987946735687002
    O    -0.6558389043590233    -1.5880109869381804    -1.095194198581896
    O    1.933257362196464    2.85947427165447    -2.5179397533398182
    C    3.0673947248971394    -0.18159351825363926    1.2588863505158494
    O    2.6591906444797795    0.014822428631410622    -1.0776845708267442
    C    -0.8499419831619972    -3.7678206239709513    0.7001821966717181
    H    -0.7004072709541964    -3.980228421778552    -0.35004364693921713
    C    -1.1716693586936244    -2.1377076948090195    2.448023266723441
    H    -1.254081338084678    -1.1031510178855783    2.7539559179129287
    C    3.0604631338719703    2.8766185473974755    -1.7851552836226259
    C    4.362367840118521    -0.6474562122708203    1.064424352900036
    H    4.755595372773209    -0.6817416685762254    0.05660738432984189
    C    2.5137834980067004    -0.1545896337949885    2.5351141456944304
    H    1.4918318943876483    0.17380412716705862    2.6672135210717087
    C    -0.8634713200981092    -4.781581350196336    1.643982089035421
    H    -0.7030931007468796    -5.808073301291115    1.3395247698434818
    C    -1.2181294012437514    -3.158199147120459    3.386018130214044
    H    -1.334459205603311    -2.9213926850489718    4.435256894186594
    C    4.208722524622589    2.2414830218783055    -2.4831862730141587
    O    3.115896156498982    3.374579276483229    -0.6872173971353098
    C    5.111320828564287    -1.073106086212029    2.1490944595224035
    H    6.128415907036945    -1.412257312479147    2.0046250059174096
    C    3.276665938797324    -0.5541808147045062    3.6214645245412216
    H    2.8572685096325188    -0.5201819740414612    4.618593961559673
    C    -1.0170595409492675    -4.473964902346713    2.9896403509460567
    H    -1.008086080447529    -5.264002597019234    3.7296632701779946
    C    4.096253608438822    1.7113958892566312    -3.762862932323946
    H    3.161473570099376    1.7979258108175713    -4.298017949352323
    C    5.404467138604483    2.134660799119968    -1.7829872737739019
    H    5.46686199958616    2.568867040865366    -0.7940070393117676
    C    4.581187441859787    -0.989418939634438    3.430507285845684
    H    5.186770134405786    -1.2632609404996746    4.284503485074407
    C    5.179978310236584    1.0648145826013657    -4.335998931321519
    H    5.100406895126388    0.6620830300910353    -5.337831291493733
    C    6.4833889332038455    1.4830407051002266    -2.3557139237501805
    H    7.4156061416722485    1.400133545433496    -1.8125426785373724
    C    6.3652014230528335    0.9319554485107525    -3.625266492055921
    H    7.220076473466647    0.4509153852689567    -4.085241620685173
    O    -5.865713573403353    3.737039703419649    1.0810556376386025
    H    -6.3371666826578466    4.474924613173352    0.6813282981837382
74
    Energy:       unknown
    C    -4.8730146748171785    -0.7824724206639486    0.04388259125895404
    N    -4.035915148804863    -0.867655353932568    -0.9933454917463441
    C    -5.514872300923656    -1.890552454968679    0.5782060191884557
    H    -6.158269571865174    -1.781870301155862    1.4421569646330459
    C    -5.08269485080275    0.5998692494444965    0.6205023042525053
    H    -5.584282673845467    1.2357284746187331    -0.10722492296623592
    H    -5.712798464725599    0.5583847573601021    1.508294556819013
    C    -3.8494484816257697    -2.058982625960351    -1.5530002984417273
    H    -3.1678575523380643    -2.087510494239999    -2.396282280443637
    C    -5.305545966279446    -3.13022647243682    -0.006579008250347599
    H    -5.789901441012652    -4.011331800796883    0.3933905412602267
    N    -3.800880828657095    1.2069308439834145    0.93094593810195
    H    -3.145458893785714    0.5969261119769789    1.39670868297913
    H    -5.4649527051375095    3.477464322734815    0.15401432319332714
    C    -4.468499629098821    -3.2188593195085917    -1.1050971918100934
    H    -4.288969205403037    -4.1615599141476745    -1.604609699629776
    C    -1.145828375244629    0.8403610445253533    -0.4056184482412332
    H    -1.6886691899556212    0.5726222163209949    -1.3116041204638391
    C    0.29818212485733964    1.2426309855482065    -0.7311634503924525
    H    0.6601310278418886    0.806379378768301    -1.6578197041972396
    C    -1.7214680270775689    2.1203815142049556    0.202988526089892
    H    -1.4105950215015566    2.1865513885730414    1.2567185081211878
    O    -1.2489300308376525    -0.21655368592212876    0.5398667439285022
    C    0.23260960525058444    2.7811474948670725    -0.7486067294165704
    H    0.8239231714437121    3.150202649035196    0.09125045539415023
    O    1.1275040743086506    0.8162600412054318    0.3502187158936402
    O    -1.1420638957423466    3.135165458069234    -0.5680918480302005
    C    -3.2377128945627147    2.136270091130222    0.11702587477473003
    C    -0.9632918405132936    -1.4488980316645694    0.06905438137752724
    C    0.6829242097512813    3.4276535451093264    -2.052377871422018
    H    0.8658065582993656    4.491722282103274    -1.903931961019275
    H    -0.09759365344720808    3.291868369029705    -2.7984786263062076
    C    2.2947188359704724    0.21391375680933436    0.0420721914202779
    O    -3.8575842094208666    2.871556718054514    -0.626087305276085
    C    -1.1050999768047216    -2.500706856056148    1.1106600589695155
    O    -0.632728388947067    -1.6493007841734697    -1.069815145798682
    O    1.847468158140912    2.811231538801656    -2.6167075237310495
    C    3.0368379245558166    -0.2038971602966489    1.2604651804616833
    O    2.684204377134522    0.04523121800624095    -1.0827294026638428
    C    -0.9910213566089934    -3.827622766423498    0.7089315798039048
    H    -0.8095123443589647    -4.043217265572818    -0.33553854967924784
    C    -1.3232655578257821    -2.1922219446912634    2.4495117871705214
    H    -1.3930174014618601    -1.1584673579301181    2.7585730033587317
    C    2.9805613584406414    2.907145218706181    -1.898741764011748
    C    4.341446931529084    -0.6517149771112508    1.090845836646518
    H    4.756850205175916    -0.6720506323527236    0.0916305549610955
    C    2.4637281542795284    -0.1655225255708139    2.527748825631719
    H    1.4469795888891381    0.1831371114451722    2.6444927282479243
    C    -1.1034428870714152    -4.842897116592758    1.6439215967441978
    H    -1.0151130621022426    -5.876081954563135    1.3346069400167093
    C    -1.4314394499758953    -3.2108943664912655    3.382988301310873
    H    -1.594664459064341    -2.9722955239280235    4.425432237169938
    C    4.136169774985329    2.239141045373344    -2.5527671673628585
    O    3.028449399687775    3.46202967059843    -0.8280261541752987
    C    5.077678901934575    -1.0560531708063194    2.1916787606283923
    H    6.095216932176058    -1.4002998687997161    2.0648376990206865
    C    3.201448278720759    -0.5796046605365768    3.625801314156803
    H    2.759328852920691    -0.5565271701605883    4.613495344668621
    C    -1.3223524654457193    -4.534794849534806    2.980051189757942
    H    -1.400295227799447    -5.328281420545953    3.712069833331214
    C    4.044086790109441    1.66624435007205    -3.815459139915628
    H    3.1179990725778355    1.7354801646557274    -4.3680381473429595
    C    5.321188144218408    2.1594760130813744    -1.8311750402847988
    H    5.364173179997637    2.6198107077319053    -0.8531708356351685
    C    4.506768073631298    -1.0205104135570064    3.4572202388964626
    H    5.081662671211283    -1.337642404196723    4.317501978745389
    C    5.136766539516064    1.0002435984529432    -4.347704753263887
    H    5.0688059665463765    0.5497638925908102    -5.329220629777035
    C    6.4089094501019614    1.4885824844084703    -2.3631667113215653
    H    7.329854973528483    1.4203069614192358    -1.7993986089898433
    C    6.314098226063039    0.9025667984228672    -3.6186365630036894
    H    7.1617756408693305    0.3705075493241506    -4.031307661350555
    O    -6.243571209344061    3.6255368123251213    0.7184737547825386
    H    -6.575633860428393    4.490652236401314    0.4632866931932425
